X,Y,ux,uy,sigma_xx,sigma_yy,sigma_xy,magnitude
0.05050505,0.04040404,-0.00042559952,0.00022909977,-0.35045487,-4.480691,-2.2127259,0.00048334422
0.05050505,0.08080808,-0.0004026927,0.0002184324,-1.4931501,-4.991971,-3.304493,0.0004581202
0.05050505,0.121212125,-0.0003879927,0.00020774826,-2.7595053,-5.5730734,-4.2868533,0.000440111
0.05050505,0.16161616,-0.0003810078,0.00019691885,-4.1463046,-6.224662,-5.1592226,0.00042888688
0.05050505,0.2020202,-0.00038133934,0.00018593669,-5.6464906,-6.9445252,-5.9216843,0.0004242548
0.05050505,0.24242425,-0.00038848817,0.00017471053,-7.2530704,-7.7306023,-6.575208,0.00042596576
0.05050505,0.28282827,-0.0004019551,0.00016321614,-8.955698,-8.579028,-7.121359,0.00043382877
0.05050505,0.32323232,-0.0004212968,0.00015143678,-10.743467,-9.484484,-7.562795,0.0004476875
0.05050505,0.36363637,-0.0004460439,0.00013926066,-12.602979,-10.440135,-7.9027348,0.00046727798
0.05050505,0.4040404,-0.00047601014,0.00012673996,-14.5194,-11.438063,-8.145389,0.0004925938
0.05050505,0.44444445,-0.00051056966,0.000113762915,-16.477583,-12.469131,-8.295577,0.00052309025
0.05050505,0.4848485,-0.0005493425,0.0001002308,-18.459578,-13.522271,-8.359053,0.00055841147
0.05050505,0.5252525,-0.0005921833,8.622743e-05,-20.447214,-14.58511,-8.342347,0.0005984282
0.05050505,0.56565654,-0.0006385781,7.161684e-05,-22.42219,-15.644603,-8.2522545,0.0006425815
0.05050505,0.6060606,-0.0006882921,5.6590885e-05,-24.364258,-16.685684,-8.096509,0.0006906146
0.05050505,0.64646465,-0.0007411465,4.10676e-05,-26.255566,-17.694138,-7.882974,0.0007422834
0.05050505,0.68686867,-0.00079670176,2.5041401e-05,-28.0753,-18.65248,-7.62025,0.0007970952
0.05050505,0.72727275,-0.00085482,8.692965e-06,-29.80538,-19.544645,-7.316988,0.0008548642
0.05050505,0.7676768,-0.00091538206,-8.117408e-06,-31.427849,-20.353682,-6.9820595,0.00091541803
0.05050505,0.8080808,-0.0009780712,-2.5104731e-05,-32.924667,-21.061817,-6.6246567,0.0009783934
0.05050505,0.8484849,-0.0010428093,-4.217215e-05,-34.281116,-21.652586,-6.2532744,0.0010436617
0.05050505,0.8888889,-0.0011093505,-5.9131533e-05,-35.482033,-22.108585,-5.877099,0.0011109252
0.05050505,0.9292929,-0.0011776797,-7.586554e-05,-36.515785,-22.414448,-5.5042,0.0011801209
0.05050505,0.969697,-0.0012475364,-9.225495e-05,-37.372154,-22.554976,-5.142632,0.0012509428
0.05050505,1.010101,-0.0013188832,-0.00010787882,-38.043262,-22.516481,-4.799713,0.0013232878
0.05050505,1.050505,-0.0013915226,-0.0001225397,-38.523335,-22.286161,-4.4826164,0.0013969077
0.05050505,1.0909091,-0.0014653355,-0.00013607368,-38.809494,-21.853361,-4.1971292,0.00147164
0.05050505,1.1313131,-0.0015401803,-0.00014809147,-38.901505,-21.209517,-3.9487443,0.0015472836
0.05050505,1.1717172,-0.0016158894,-0.00015825406,-38.80198,-20.347538,-3.7418106,0.0016236203
0.05050505,1.2121212,-0.0016922578,-0.00016619265,-38.51606,-19.263018,-3.579747,0.0017003989
0.05050505,1.2525252,-0.0017691851,-0.00017165393,-38.05105,-17.953323,-3.465455,0.0017774929
0.05050505,1.2929293,-0.0018463396,-0.00017414056,-37.417007,-16.418774,-3.4002829,0.0018545336
0.05050505,1.3333334,-0.0019235238,-0.00017339364,-36.626354,-14.661783,-3.3851767,0.0019313232
0.05050505,1.3737373,-0.0020004846,-0.00016896799,-35.693604,-12.687469,-3.419771,0.0020076078
0.05050505,1.4141414,-0.0020768456,-0.00016045943,-34.63435,-10.50268,-3.5030632,0.002083035
0.05050505,1.4545455,-0.0021522827,-0.0001475215,-33.46652,-8.116913,-3.63341,0.0021573326
0.05050505,1.4949495,-0.0022264495,-0.00012978539,-32.209084,-5.5424685,-3.8077695,0.002230229
0.05050505,1.5353535,-0.002298925,-0.00010693818,-30.880552,-2.792162,-4.023324,0.002301411
0.05050505,1.5757576,-0.0023692735,-7.851049e-05,-29.502037,0.11803338,-4.2759366,0.002370574
0.05050505,1.6161616,-0.0024370812,-4.4252723e-05,-28.093096,3.1710474,-4.561641,0.0024374828
0.05050505,1.6565657,-0.002501674,-3.857538e-06,-26.674019,6.348338,-4.875417,0.002501677
0.05050505,1.6969697,-0.0025628097,4.303828e-05,-25.26315,9.630977,-5.212945,0.002563171
0.05050505,1.7373737,-0.002619721,9.6531585e-05,-23.879597,12.997816,-5.568939,0.002621499
0.05050505,1.7777778,-0.0026719496,0.00015698001,-22.540258,16.428019,-5.9384174,0.002676557
0.05050505,1.8181819,-0.0027189255,0.00022447295,-21.261206,19.900063,-6.3164334,0.0027281758
0.05050505,1.8585858,-0.0027600564,0.00029921718,-20.056093,23.392645,-6.6982017,0.002776228
0.05050505,1.8989899,-0.0027946383,0.00038130395,-18.937244,26.884068,-7.0792,0.0028205311
0.05050505,1.939394,-0.0028222762,0.00047085062,-17.914604,30.353579,-7.4551063,0.0028612835
0.05050505,1.979798,-0.0028423406,0.0005678367,-16.996515,33.78039,-7.8221855,0.0028985064
0.05050505,2.020202,-0.0028542317,0.0006721169,-16.189497,37.14482,-8.17675,0.0029322994
0.05050505,2.060606,-0.0028574467,0.0007838644,-15.496844,40.42804,-8.51582,0.0029630128
0.05050505,2.10101,-0.0028514378,0.0009028651,-14.920499,43.61256,-8.836815,0.0029909634
0.05050505,2.1414142,-0.0028356388,0.0010289773,-14.460573,46.681652,-9.137432,0.0030165613
0.05050505,2.1818182,-0.0028096028,0.0011620037,-14.115275,49.619682,-9.416015,0.0030404145
0.05050505,2.2222223,-0.002772916,0.0013018083,-13.8807535,52.41314,-9.671239,0.0030632939
0.05050505,2.2626262,-0.00272521,0.0014480529,-13.751486,55.04945,-9.902322,0.0030860372
0.05050505,2.3030303,-0.0026660599,0.0016004052,-13.721394,57.517075,-10.108476,0.0031095291
0.05050505,2.3434343,-0.0025950484,0.0017586974,-13.782609,59.806522,-10.289727,0.0031348513
0.05050505,2.3838384,-0.0025119595,0.0019224957,-13.9259,61.90981,-10.446132,0.003163215
0.05050505,2.4242425,-0.0024164766,0.002091351,-14.142239,63.81969,-10.578072,0.0031957955
0.05050505,2.4646466,-0.0023084655,0.0022649318,-14.421295,65.53067,-10.686242,0.0032340267
0.05050505,2.5050504,-0.0021877214,0.0024427325,-14.752277,67.03898,-10.771323,0.003279187
0.05050505,2.5454545,-0.0020539053,0.0026244223,-15.124516,68.34159,-10.834368,0.0033325846
0.05050505,2.5858586,-0.0019071288,0.0028093755,-15.52724,69.43666,-10.876299,0.0033955458
0.05050505,2.6262627,-0.0017471686,0.002997256,-15.949304,70.32405,-10.898497,0.0034693142
0.05050505,2.6666667,-0.0015740134,0.0031875297,-16.38024,71.00444,-10.901874,0.0035549772
0.05050505,2.7070708,-0.0013876855,0.00337963,-16.809162,71.47973,-10.887953,0.0036534325
0.05050505,2.7474747,-0.0011881217,0.0035730796,-17.226028,71.75246,-10.857912,0.0037654391
0.05050505,2.7878788,-0.00097548217,0.0037673991,-17.620981,71.826485,-10.812913,0.0038916399
0.05050505,2.8282828,-0.00074963644,0.003962037,-17.984962,71.70637,-10.75428,0.004032331
0.05050505,2.868687,-0.0005107559,0.0041565374,-18.308876,71.39732,-10.683012,0.004187801
0.05050505,2.909091,-0.00025895238,0.004350312,-18.584818,70.90543,-10.600545,0.004358012
0.05050505,2.9494948,5.658716e-06,0.004543063,-18.804386,70.23757,-10.507927,0.004543067
0.05050505,2.989899,0.00028293952,0.0047340104,-18.961044,69.40086,-10.406242,0.0047424585
0.05050505,3.030303,0.00057278946,0.0049229097,-19.047398,68.403435,-10.29647,0.00495612
0.05050505,3.070707,0.0008750297,0.005109256,-19.057789,67.25346,-10.179875,0.005183645
0.05050505,3.1111112,0.0011894219,0.005292507,-18.98546,65.95994,-10.057284,0.005424514
0.05050505,3.1515152,0.0015159585,0.0054723797,-18.826328,64.53153,-9.929718,0.005678474
0.05050505,3.191919,0.0018543974,0.0056482702,-18.574131,62.978096,-9.798037,0.0059448923
0.05050505,3.2323232,0.0022044778,0.0058199773,-18.225601,61.308956,-9.6632595,0.0062234923
0.05050505,3.2727273,0.0025661401,0.0059870323,-17.775805,59.53412,-9.526285,0.0065138033
0.05050505,3.3131313,0.0029391237,0.00614909,-17.221712,57.663273,-9.387823,0.006815406
0.05050505,3.3535354,0.0033231974,0.0063057756,-16.559376,55.706467,-9.248947,0.0071278643
0.05050505,3.3939395,0.0037182644,0.006456868,-15.786365,53.67376,-9.110307,0.0074509485
0.05050505,3.4343433,0.004124049,0.0066020386,-14.89932,51.575256,-8.972822,0.0077842595
0.05050505,3.4747474,0.004540514,0.0067408755,-13.895022,49.42105,-8.837341,0.008127464
0.05050505,3.5151515,0.0049673207,0.0068733916,-12.773161,47.21993,-8.704412,0.008480436
0.05050505,3.5555556,0.005404327,0.0069991667,-11.530605,44.98264,-8.575068,0.008842799
0.05050505,3.5959597,0.005851295,0.007118077,-10.165406,42.71822,-8.449818,0.009214373
0.05050505,3.6363637,0.006308105,0.007229874,-8.67665,40.435894,-8.329554,0.00959496
0.05050505,3.6767676,0.006774593,0.0073344447,-7.062435,38.144604,-8.215146,0.009984448
0.05050505,3.7171717,0.007250618,0.0074316803,-5.3221426,35.853024,-8.106827,0.010382743
0.05050505,3.7575758,0.0077358596,0.007521373,-3.455552,33.56899,-8.005362,0.010789559
0.05050505,3.7979798,0.008230235,0.007603474,-1.4606473,31.301546,-7.9114046,0.011204891
0.05050505,3.838384,0.008733515,0.007677826,0.6624927,29.057867,-7.825871,0.011628555
0.05050505,3.878788,0.009245623,0.007744521,2.9131982,26.844751,-7.748624,0.012060644
0.05050505,3.9191918,0.009766299,0.0078033144,5.2930083,24.670012,-7.680811,0.012500892
0.05050505,3.959596,0.010295447,0.007854318,7.8007007,22.539467,-7.622422,0.012949384
0.05050505,4.0,0.010832686,0.007897427,10.43606,20.459347,-7.574199,0.013405836
0.1010101,0.04040404,-0.00042065233,0.00017958507,-0.15221226,-4.114338,-1.7256956,0.00045738296
0.1010101,0.08080808,-0.00040057302,0.0001697503,-1.197774,-4.4514136,-2.8922455,0.00043505622
0.1010101,0.121212125,-0.00038893893,0.00016025454,-2.3610477,-4.8528156,-3.9568791,0.00042066022
0.1010101,0.16161616,-0.00038536265,0.00015096366,-3.6414776,-5.320899,-4.917942,0.00041387728
0.1010101,0.2020202,-0.000389304,0.00014185347,-5.0337276,-5.8551435,-5.774891,0.00041434288
0.1010101,0.24242425,-0.0004002154,0.00013282523,-6.533019,-6.455465,-6.5277514,0.00042168103
0.1010101,0.28282827,-0.00041778386,0.00012389198,-8.131251,-7.1198354,-7.1771984,0.00043576665
0.1010101,0.32323232,-0.00044144318,0.00011494383,-9.819171,-7.845179,-7.724891,0.00045616244
0.1010101,0.36363637,-0.0004706569,0.00010601804,-11.585375,-8.626993,-8.1732235,0.00048244972
0.1010101,0.4040404,-0.00050504133,9.696931e-05,-13.417181,-9.459827,-8.525067,0.00051426626
0.1010101,0.44444445,-0.00054421276,8.782931e-05,-15.299732,-10.335916,-8.784674,0.0005512545
0.1010101,0.4848485,-0.0005877875,7.847883e-05,-17.218117,-11.247793,-8.956693,0.0005930034
0.1010101,0.5252525,-0.00063525885,6.8863854e-05,-19.155298,-12.185014,-9.046407,0.0006389805
0.1010101,0.56565654,-0.00068634376,5.890429e-05,-21.093605,-13.137041,-9.059969,0.0006888668
0.1010101,0.6060606,-0.00074066967,4.8775226e-05,-23.015055,-14.09139,-9.004137,0.0007422739
0.1010101,0.64646465,-0.0007979721,3.8245693e-05,-24.9001,-15.034483,-8.8864355,0.0007988881
0.1010101,0.68686867,-0.00085793063,2.7401373e-05,-26.730297,-15.952073,-8.71441,0.0008583681
0.1010101,0.72727275,-0.0009202771,1.616776e-05,-28.48692,-16.829702,-8.496388,0.0009204191
0.1010101,0.7676768,-0.0009848028,4.6901405e-06,-30.151556,-17.651016,-8.240499,0.000984814
0.1010101,0.8080808,-0.0010512024,-6.949529e-06,-31.70613,-18.40003,-7.955825,0.0010512254
0.1010101,0.8484849,-0.0011193976,-1.8810853e-05,-33.134373,-19.060452,-7.6510553,0.0011195557
0.1010101,0.8888889,-0.0011891015,-3.0769035e-05,-34.421078,-19.616335,-7.3344307,0.0011894995
0.1010101,0.9292929,-0.0012602434,-4.262291e-05,-35.552494,-20.051495,-7.0146327,0.001260964
0.1010101,0.969697,-0.0013326332,-5.427189e-05,-36.51672,-20.351027,-6.6998615,0.0013337379
0.1010101,1.010101,-0.0014060922,-6.560609e-05,-37.304264,-20.499971,-6.39791,0.0014076219
0.1010101,1.050505,-0.001480516,-7.635355e-05,-37.907745,-20.485495,-6.115767,0.0014824836
0.1010101,1.0909091,-0.0015558116,-8.62889e-05,-38.321327,-20.294676,-5.8603635,0.0015582027
0.1010101,1.1313131,-0.0016318485,-9.523332e-05,-38.543217,-19.917492,-5.6374035,0.001634625
0.1010101,1.1717172,-0.001708366,-0.00010288507,-38.57376,-19.345352,-5.451993,0.0017114613
0.1010101,1.2121212,-0.0017853491,-0.00010894053,-38.41544,-18.571278,-5.308367,0.0017886697
0.1010101,1.2525252,-0.0018624701,-0.00011313334,-38.074223,-17.5906,-5.2096953,0.001865903
0.1010101,1.2929293,-0.0019396618,-0.000115087256,-37.557148,-16.400135,-5.1589003,0.001943073
0.1010101,1.3333334,-0.0020166487,-0.00011448376,-36.875042,-14.999945,-5.156985,0.0020198957
0.1010101,1.3737373,-0.0020932443,-0.00011101365,-36.04121,-13.392524,-5.204692,0.002096186
0.1010101,1.4141414,-0.0021690764,-0.00010431558,-35.06914,-11.58127,-5.3014917,0.0021715832
0.1010101,1.4545455,-0.0022440292,-9.403005e-05,-33.97567,-9.573228,-5.446397,0.0022459985
0.1010101,1.4949495,-0.0023175292,-7.977523e-05,-32.778847,-7.3769093,-5.637152,0.0023189017
0.1010101,1.5353535,-0.0023893453,-6.1210245e-05,-31.49772,-5.0034714,-5.8709,0.0023901293
0.1010101,1.5757576,-0.0024591498,-3.8024038e-05,-30.151464,-2.4653044,-6.144486,0.0024594436
0.1010101,1.6161616,-0.0025263503,-9.838492e-06,-28.7608,0.22275175,-6.4534745,0.0025263694
0.1010101,1.6565657,-0.0025906377,2.3651868e-05,-27.345667,3.0449226,-6.7936993,0.0025907457
0.1010101,1.6969697,-0.0026514418,6.263703e-05,-25.92598,5.9834566,-7.1602545,0.0026521815
0.1010101,1.7373737,-0.0027083196,0.00010753237,-24.521753,9.01985,-7.548001,0.0027104535
0.1010101,1.7777778,-0.0027606748,0.0001584664,-23.151026,12.13464,-7.9517503,0.0027652192
0.1010101,1.8181819,-0.0028080307,0.00021575205,-21.830328,15.308185,-8.366322,0.002816307
0.1010101,1.8585858,-0.0028496832,0.0002794601,-20.575953,18.519682,-8.786363,0.0028633534
0.1010101,1.8989899,-0.0028852895,0.0003498327,-19.401814,21.74875,-9.206916,0.00290642
0.1010101,1.939394,-0.0029140823,0.00042686984,-18.319975,24.974575,-9.6232605,0.0029451814
0.1010101,1.979798,-0.0029356182,0.000510687,-17.339838,28.17773,-10.030814,0.0029797072
0.1010101,2.020202,-0.002949182,0.0006014034,-16.469936,31.338312,-10.425408,0.0030098772
0.1010101,2.060606,-0.0029543228,0.000698952,-15.715664,34.437553,-10.803212,0.0030358783
0.1010101,2.10101,-0.002950497,0.0008032061,-15.080182,37.45753,-11.16113,0.0030578705
0.1010101,2.1414142,-0.0029371642,0.0009142179,-14.565057,40.381535,-11.496278,0.0030761547
0.1010101,2.1818182,-0.0029137842,0.001031734,-14.170203,43.193245,-11.806112,0.0030910538
0.1010101,2.2222223,-0.0028799586,0.0011556912,-13.892084,45.87884,-12.088923,0.0031031892
0.1010101,2.2626262,-0.0028351806,0.0012857728,-13.727714,48.42429,-12.342976,0.003113111
0.1010101,2.3030303,-0.002779048,0.0014218036,-13.670169,50.818382,-12.567372,0.0031216394
0.1010101,2.3434343,-0.0027111955,0.0015635509,-13.711809,53.050602,-12.761584,0.00312974
0.1010101,2.3838384,-0.0026312396,0.0017105965,-13.845483,55.11128,-12.925029,0.003138401
0.1010101,2.4242425,-0.002538994,0.0018627178,-14.060965,56.99303,-13.05792,0.0031490012
0.1010101,2.4646466,-0.0024340637,0.0020194445,-14.347545,58.68958,-13.16051,0.003162724
0.1010101,2.5050504,-0.0023162328,0.0021803826,-14.694553,60.195805,-13.233481,0.003181038
0.1010101,2.5454545,-0.002185408,0.0023452602,-15.090807,61.508038,-13.277593,0.0032056596
0.1010101,2.5858586,-0.0020412616,0.0025135092,-15.525031,62.623634,-13.293771,0.0032379744
0.1010101,2.6262627,-0.0018839128,0.0026847254,-15.984705,63.5418,-13.2831135,0.003279768
0.1010101,2.6666667,-0.0017130487,0.0028584264,-16.458687,64.2621,-13.246911,0.003332437
0.1010101,2.7070708,-0.0015287548,0.0030341828,-16.935946,64.78525,-13.186274,0.0033975516
0.1010101,2.7474747,-0.0013309754,0.0032114144,-17.405361,65.11349,-13.102734,0.0034763024
0.1010101,2.7878788,-0.0011196546,0.0033897962,-17.85529,65.250145,-12.997514,0.0035699224
0.1010101,2.8282828,-0.00089496,0.003568706,-18.277075,65.19799,-12.872116,0.0036792143
0.1010101,2.868687,-0.000656832,0.0037476616,-18.659214,64.96291,-12.727853,0.003804786
0.1010101,2.909091,-0.00040538236,0.0039261887,-18.993362,64.54952,-12.566276,0.0039470615
0.1010101,2.9494948,-0.00014073029,0.0041038273,-19.270468,63.96436,-12.388579,0.00410624
0.1010101,2.989899,0.00013704598,0.0042801034,-19.482887,63.213676,-12.196045,0.0042822966
0.1010101,3.030303,0.00042778254,0.004454531,-19.623438,62.30499,-11.990218,0.004475024
0.1010101,3.070707,0.00073137134,0.00462664,-19.683863,61.2465,-11.772168,0.0046840906
0.1010101,3.1111112,0.001047641,0.0047960067,-19.658298,60.04626,-11.543299,0.0049090968
0.1010101,3.1515152,0.0013763905,0.004962138,-19.54135,58.71275,-11.30492,0.0051494916
0.1010101,3.191919,0.0017175004,0.005124703,-19.327248,57.25491,-11.058008,0.0054048486
0.1010101,3.2323232,0.0020707846,0.005283354,-19.01085,55.68249,-10.803865,0.0056746784
0.1010101,3.2727273,0.0024359562,0.0054375194,-18.588001,54.00462,-10.543919,0.00595823
0.1010101,3.3131313,0.0028130226,0.005587049,-18.054253,52.230873,-10.278986,0.0062552546
0.1010101,3.3535354,0.0032017045,0.005731371,-17.406364,50.37109,-10.01027,0.006565023
0.1010101,3.3939395,0.0036016963,0.005870452,-16.641052,48.435223,-9.738923,0.0068872655
0.1010101,3.4343433,0.0040129684,0.006003665,-15.754582,46.433037,-9.466103,0.007221351
0.1010101,3.4747474,0.0044351704,0.0061310744,-14.745106,44.3742,-9.192563,0.007567087
0.1010101,3.5151515,0.0048682764,0.006252191,-13.610006,42.26857,-8.919817,0.007924015
0.1010101,3.5555556,0.0053119697,0.0063668154,-12.346948,40.125607,-8.64848,0.008291765
0.1010101,3.5959597,0.0057660937,0.0064747436,-10.954732,37.954773,-8.380038,0.008670072
0.1010101,3.6363637,0.0062305294,0.006575806,-9.431062,35.76545,-8.114945,0.009058737
0.1010101,3.6767676,0.0067049973,0.0066698305,-7.775191,33.566505,-7.854359,0.009457464
0.1010101,3.7171717,0.0071892627,0.0067566205,-5.986054,31.366404,-7.59934,0.009865972
0.1010101,3.7575758,0.0076832436,0.006836133,-4.0627313,29.173761,-7.3504887,0.010284209
0.1010101,3.7979798,0.008186761,0.006908182,-2.00419,26.996883,-7.1088696,0.010711958
0.1010101,3.838384,0.008699533,0.0069726706,0.1895776,24.843605,-6.875224,0.011148991
0.1010101,3.878788,0.009221543,0.007029551,2.5188265,22.720873,-6.65017,0.011595319
0.1010101,3.9191918,0.009752456,0.0070787407,4.983506,20.636076,-6.434755,0.012050684
0.1010101,3.959596,0.010292087,0.007120259,7.5832877,18.595642,-6.2294626,0.012514996
0.1010101,4.0,0.010840315,0.0071539804,10.318447,16.606344,-6.0347557,0.012988144
0.15151516,0.04040404,-0.00041580945,0.00013736635,-0.1246191,-3.9166667,-1.3013011,0.0004379121
0.15151516,0.08080808,-0.00039842352,0.00012816116,-1.0873318,-4.115842,-2.5349226,0.0004185291
0.15151516,0.121212125,-0.0003898032,0.000119445845,-2.1606882,-4.373166,-3.6743066,0.00040769333
0.15151516,0.16161616,-0.00038951263,0.00011121109,-3.3451798,-4.691829,-4.717421,0.00040507776
0.15151516,0.2020202,-0.00039687753,0.00010347925,-4.6380615,-5.073018,-5.6626863,0.000410146
0.15151516,0.24242425,-0.00041166693,9.6116215e-05,-6.036015,-5.517874,-6.5094724,0.00042273867
0.15151516,0.28282827,-0.0004331246,8.907914e-05,-7.5320644,-6.0255566,-7.25748,0.00044219004
0.15151516,0.32323232,-0.0004609041,8.2364306e-05,-9.120027,-6.59572,-7.907466,0.00046820557
0.15151516,0.36363637,-0.00049443915,7.588044e-05,-10.790133,-7.2254505,-8.460872,0.00050022785
0.15151516,0.4040404,-0.0005334206,6.959587e-05,-12.531511,-7.9111166,-8.91979,0.0005379416
0.15151516,0.44444445,-0.0005771704,6.341748e-05,-14.331726,-8.648389,-9.287209,0.000580644
0.15151516,0.4848485,-0.0006253831,5.72782e-05,-16.176989,-9.430987,-9.566711,0.00062800065
0.15151516,0.5252525,-0.0006775558,5.1146373e-05,-18.051414,-10.250646,-9.762978,0.0006794835
0.15151516,0.56565654,-0.0007333644,4.495494e-05,-19.93919,-11.099346,-9.881104,0.000734741
0.15151516,0.6060606,-0.00079234317,3.8625672e-05,-21.823204,-11.966773,-9.926967,0.0007932841
0.15151516,0.64646465,-0.00085420907,3.211014e-05,-23.685621,-12.841987,-9.907181,0.0008548124
0.15151516,0.68686867,-0.0009185262,2.5451183e-05,-25.508184,-13.712568,-9.828465,0.00091887877
0.15151516,0.72727275,-0.0009851307,1.8510967e-05,-27.272005,-14.5650835,-9.698678,0.0009853046
0.15151516,0.7676768,-0.0010537021,1.133047e-05,-28.959782,-15.385698,-9.525736,0.001053763
0.15151516,0.8080808,-0.0011239015,3.868714e-06,-30.552557,-16.159548,-9.317612,0.0011239081
0.15151516,0.8484849,-0.0011956953,-3.6992133e-06,-32.03448,-16.871733,-9.082756,0.001195701
0.15151516,0.8888889,-0.0012686588,-1.1444092e-05,-33.38897,-17.506817,-8.829767,0.0012687104
0.15151516,0.9292929,-0.0013427101,-1.9345433e-05,-34.601486,-18.04905,-8.566886,0.0013428495
0.15151516,0.969697,-0.0014177226,-2.7235597e-05,-35.658558,-18.483406,-8.302343,0.001417984
0.15151516,1.010101,-0.0014935099,-3.4967437e-05,-36.5493,-18.795301,-8.044247,0.0014939192
0.15151516,1.050505,-0.0015698373,-4.2520463e-05,-37.264526,-18.970789,-7.799888,0.0015704131
0.15151516,1.0909091,-0.0016467012,-4.966557e-05,-37.797043,-18.99669,-7.5765934,0.0016474501
0.15151516,1.1313131,-0.0017238595,-5.618483e-05,-38.143154,-18.861713,-7.38031,0.0017247748
0.15151516,1.1717172,-0.001801271,-6.188825e-05,-38.29945,-18.554392,-7.217181,0.0018023339
0.15151516,1.2121212,-0.0018788166,-6.6604465e-05,-38.268005,-18.06726,-7.0918784,0.0018799969
0.15151516,1.2525252,-0.0019561797,-6.999448e-05,-38.051743,-17.392931,-7.0084615,0.0019574317
0.15151516,1.2929293,-0.0020332858,-7.184222e-05,-37.65582,-16.525887,-6.9700413,0.0020345545
0.15151516,1.3333334,-0.0021100082,-7.181615e-05,-37.0891,-15.463733,-6.9792457,0.00211123
0.15151516,1.3737373,-0.0021860637,-6.95996e-05,-36.362568,-14.205895,-7.0368414,0.0021871713
0.15151516,1.4141414,-0.0022612512,-6.4956024e-05,-35.488953,-12.753581,-7.1436543,0.002262184
0.15151516,1.4545455,-0.0023353174,-5.748868e-05,-34.483078,-11.1107,-7.298674,0.002336025
0.15151516,1.4949495,-0.0024078935,-4.6830624e-05,-33.361946,-9.282544,-7.50071,0.002408349
0.15151516,1.5353535,-0.0024788491,-3.2749027e-05,-32.143337,-7.2775326,-7.7476134,0.0024790654
0.15151516,1.5757576,-0.002547633,-1.4893711e-05,-30.846497,-5.1058474,-8.036168,0.0025476764
0.15151516,1.6161616,-0.0026139729,7.1302056e-06,-29.491718,-2.7789888,-8.362759,0.0026139827
0.15151516,1.6565657,-0.002677355,3.3598393e-05,-28.099201,-0.31065428,-8.723162,0.0026775657
0.15151516,1.6969697,-0.0027374849,6.469339e-05,-26.688705,2.2841575,-9.112891,0.0027382493
0.15151516,1.7373737,-0.0027937777,0.0001009386,-25.28161,4.9885015,-9.5264225,0.0027956006
0.15151516,1.7777778,-0.0028457828,0.00014232844,-23.895742,7.785255,-9.958781,0.0028493397
0.15151516,1.8181819,-0.0028929897,0.00018937513,-22.550499,10.655863,-10.404551,0.0028991813
0.15151516,1.8585858,-0.0029348284,0.00024208985,-21.26254,13.581326,-10.857974,0.0029447963
0.15151516,1.8989899,-0.0029708631,0.00030068494,-20.047728,16.542011,-11.3135,0.0029860407
0.15151516,1.939394,-0.003000304,0.00036536716,-18.919333,19.518734,-11.766153,0.0030224689
0.15151516,1.979798,-0.0030227788,0.00043614022,-17.88968,22.49158,-12.210722,0.0030540808
0.15151516,2.020202,-0.003037624,0.000513196,-16.967617,25.442003,-12.642299,0.0030806703
0.15151516,2.060606,-0.0030443333,0.00059655495,-16.161398,28.35068,-13.056609,0.003102232
0.15151516,2.10101,-0.0030423105,0.00068612397,-15.475388,31.200308,-13.4497385,0.0031187208
0.15151516,2.1414142,-0.0030310862,0.00078201294,-14.913255,33.973446,-13.818108,0.0031303398
0.15151516,2.1818182,-0.0030100383,0.00088401046,-14.475618,36.65389,-14.158324,0.0031371652
0.15151516,2.2222223,-0.0029787757,0.0009920523,-14.160579,39.22709,-14.46841,0.0031396293
0.15151516,2.2626262,-0.0029366799,0.0011059977,-13.966,41.67861,-14.7455225,0.003138044
0.15151516,2.3030303,-0.002883505,0.0012256317,-13.88617,43.996178,-14.98856,0.0031331733
0.15151516,2.3434343,-0.0028186329,0.0013507623,-13.914552,46.168713,-15.195937,0.00312558
0.15151516,2.3838384,-0.002741754,0.0014811018,-14.042528,48.186153,-15.367165,0.0031162282
0.15151516,2.4242425,-0.0026525855,0.0016163904,-14.261307,50.04001,-15.501858,0.0031062723
0.15151516,2.4646466,-0.002550818,0.0017563282,-14.56052,51.722992,-15.599788,0.0030969921
0.15151516,2.5050504,-0.002436027,0.0019004429,-14.929251,53.228745,-15.66124,0.0030896456
0.15151516,2.5454545,-0.0023082085,0.0020484738,-15.354921,54.55369,-15.687162,0.0030861094
0.15151516,2.5858586,-0.0021669418,0.0021999534,-15.826276,55.693405,-15.677761,0.0030879495
0.15151516,2.6262627,-0.0020122528,0.0023545995,-16.329935,56.646633,-15.634363,0.0030973055
0.15151516,2.6666667,-0.0018439107,0.0025118273,-16.855164,57.411404,-15.5581875,0.0031159723
0.15151516,2.7070708,-0.0016618855,0.0026713517,-17.388023,57.988945,-15.450368,0.0031461061
0.15151516,2.7474747,-0.0014660731,0.0028325059,-17.916733,58.3797,-15.312424,0.0031894294
0.15151516,2.7878788,-0.0012565367,0.0029949863,-18.430502,58.585724,-15.145627,0.0032478957
0.15151516,2.8282828,-0.0010331348,0.00315829,-18.91689,58.610558,-14.951757,0.003322975
0.15151516,2.868687,-0.0007960461,0.003321888,-19.366383,58.457626,-14.732235,0.0034159375
0.15151516,2.909091,-0.0005452521,0.003485404,-19.766945,58.13219,-14.488648,0.0035277954
0.15151516,2.9494948,-0.0002808012,0.0036482578,-20.110558,57.63906,-14.222644,0.0036590484
0.15151516,2.989899,-2.8871e-06,0.0038100705,-20.387825,56.984444,-13.935653,0.0038100716
0.15151516,3.030303,0.00028851256,0.0039703436,-20.589651,56.175453,-13.629469,0.003980812
0.15151516,3.070707,0.00059314445,0.0041285446,-20.708506,55.21927,-13.30556,0.004170935
0.15151516,3.1111112,0.00091085956,0.0042843623,-20.737917,54.122986,-12.9653425,0.004380117
0.15151516,3.1515152,0.0012416355,0.004437308,-20.670732,52.895515,-12.610616,0.00460775
0.15151516,3.191919,0.0015851334,0.004586979,-20.501337,51.544807,-12.242592,0.0048531457
0.15151516,3.2323232,0.0019413196,0.004732996,-20.22381,50.08012,-11.862736,0.00511566
0.15151516,3.2727273,0.0023099706,0.0048748534,-19.83347,48.51037,-11.472881,0.0053944564
0.15151516,3.3131313,0.002690833,0.0050123474,-19.325619,46.84519,-11.074241,0.005688955
0.15151516,3.3535354,0.0030837469,0.005145005,-18.696833,45.093594,-10.668293,0.0059983805
0.15151516,3.3939395,0.0034885742,0.0052725542,-17.942982,43.265194,-10.2562475,0.0063221813
0.15151516,3.4343433,0.003905099,0.0053947074,-17.060751,41.37009,-9.83978,0.0066597797
0.15151516,3.4747474,0.0043330975,0.0055111516,-16.04812,39.417362,-9.4199705,0.007010601
0.15151516,3.5151515,0.0047723614,0.0056215758,-14.901712,37.4168,-8.998473,0.0073741134
0.15151516,3.5555556,0.0052226856,0.005725776,-13.620211,35.377758,-8.576256,0.0077499
0.15151516,3.5959597,0.0056839697,0.005823559,-12.20039,33.310226,-8.15478,0.008137651
0.15151516,3.6363637,0.0061558746,0.00591465,-10.642118,31.2227,-7.7353253,0.008536854
0.15151516,3.6767676,0.0066383146,0.005998916,-8.943593,29.124292,-7.3190885,0.008947302
0.15151516,3.7171717,0.007131029,0.006076156,-7.1034613,27.024027,-6.907172,0.009368631
0.15151516,3.7575758,0.0076338015,0.006146309,-5.1217036,24.92998,-6.500714,0.009800614
0.15151516,3.7979798,0.008146498,0.0062091323,-2.9964201,22.85088,-6.101096,0.010242986
0.15151516,3.838384,0.008668888,0.006264532,-0.72853965,20.794271,-5.709027,0.010695512
0.15151516,3.878788,0.009200875,0.006312562,1.6831372,18.767944,-5.325727,0.01115816
0.15151516,3.9191918,0.009742055,0.0063530207,4.236948,16.778572,-4.9518137,0.011630499
0.15151516,3.959596,0.010292459,0.006385899,6.934642,14.833709,-4.588619,0.012112574
0.15151516,4.0,0.010851923,0.0064111613,9.77457,12.939413,-4.236735,0.012604254
0.2020202,0.04040404,-0.00041124597,0.00010172278,-0.23808374,-3.8558843,-0.94865143,0.00042363993
0.2020202,0.08080808,-0.00039652362,9.2912465e-05,-1.1336846,-3.9531631,-2.2414982,0.0004072637
0.2020202,0.121212125,-0.00039082393,8.475222e-05,-2.1307147,-4.1019554,-3.4481645,0.00039990782
0.2020202,0.16161616,-0.000393603,7.722713e-05,-3.2311728,-4.305421,-4.566003,0.00040110765
0.2020202,0.2020202,-0.00040447712,7.04024e-05,-4.434247,-4.5663586,-5.5930142,0.00041055845
0.2020202,0.24242425,-0.00042283162,6.413646e-05,-5.737354,-4.886762,-6.5274734,0.0004276682
0.2020202,0.28282827,-0.0004481785,5.8542937e-05,-7.137287,-5.267607,-7.36848,0.0004519859
0.2020202,0.32323232,-0.00048003346,5.3331256e-05,-8.627251,-5.7092957,-8.115917,0.00048298688
0.2020202,0.36363637,-0.0005177669,4.8618764e-05,-10.20135,-6.211329,-8.770165,0.0005200446
0.2020202,0.4040404,-0.0005610809,4.4282526e-05,-11.849665,-6.7717266,-9.332447,0.00056282565
0.2020202,0.44444445,-0.00060942397,4.0270388e-05,-13.561196,-7.387463,-9.8050165,0.000610753
0.2020202,0.4848485,-0.0006621964,3.6541373e-05,-15.325313,-8.054905,-10.19025,0.0006632039
0.2020202,0.5252525,-0.00071892515,3.2987446e-05,-17.126888,-8.768088,-10.491919,0.00071968156
0.2020202,0.56565654,-0.000779327,2.9515475e-05,-18.952255,-9.521069,-10.714206,0.00077988574
0.2020202,0.6060606,-0.00084301084,2.6101246e-05,-20.784267,-10.305203,-10.8621025,0.0008434148
0.2020202,0.64646465,-0.00090936944,2.2672117e-05,-22.608128,-11.11251,-10.941192,0.00090965204
0.2020202,0.68686867,-0.0009781756,1.9099563e-05,-24.405415,-11.932069,-10.957709,0.000978362
0.2020202,0.72727275,-0.0010490492,1.5381724e-05,-26.158186,-12.752354,-10.918496,0.001049162
0.2020202,0.7676768,-0.001121778,1.1540949e-05,-27.849642,-13.561851,-10.830897,0.0011218374
0.2020202,0.8080808,-0.0011958703,7.4096024e-06,-29.462584,-14.347232,-10.702346,0.0011958933
0.2020202,0.8484849,-0.001271259,3.0696392e-06,-30.978312,-15.094217,-10.54105,0.0012712628
0.2020202,0.8888889,-0.0013475232,-1.4584512e-06,-32.381668,-15.788926,-10.355043,0.001347524
0.2020202,0.9292929,-0.0014246777,-6.303191e-06,-33.6571,-16.41718,-10.152546,0.0014246916
0.2020202,0.969697,-0.001502376,-1.12354755e-05,-34.79045,-16.963392,-9.941695,0.001502418
0.2020202,1.010101,-0.0015805103,-1.6313046e-05,-35.768784,-17.413395,-9.730773,0.0015805945
0.2020202,1.050505,-0.0016589053,-2.1437183e-05,-36.58255,-17.753578,-9.526909,0.0016590438
0.2020202,1.0909091,-0.0017373897,-2.6412308e-05,-37.22319,-17.970203,-9.337845,0.0017375905
0.2020202,1.1313131,-0.0018158816,-3.1260774e-05,-37.68327,-18.050209,-9.17048,0.0018161507
0.2020202,1.1717172,-0.0018942133,-3.5725534e-05,-37.959858,-17.982334,-9.030785,0.0018945502
0.2020202,1.2121212,-0.0019722022,-3.960356e-05,-38.05111,-17.756742,-8.924304,0.0019725997
0.2020202,1.2525252,-0.0020498224,-4.2695552e-05,-37.957863,-17.363651,-8.856087,0.002050267
0.2020202,1.2929293,-0.0021268986,-4.4886023e-05,-37.68417,-16.796787,-8.829539,0.0021273722
0.2020202,1.3333334,-0.0022032596,-4.5832247e-05,-37.237072,-16.051252,-8.847975,0.0022037362
0.2020202,1.3737373,-0.002278667,-4.5252964e-05,-36.624462,-15.123394,-8.913305,0.0022791163
0.2020202,1.4141414,-0.0023530237,-4.2956322e-05,-35.857655,-14.011895,-9.026781,0.0023534158
0.2020202,1.4545455,-0.0024260245,-3.8538128e-05,-34.950146,-12.718116,-9.188345,0.0024263305
0.2020202,1.4949495,-0.0024975203,-3.1728297e-05,-33.916763,-11.244594,-9.397647,0.002497722
0.2020202,1.5353535,-0.0025672577,-2.2303313e-05,-32.77513,-9.597005,-9.652737,0.0025673546
0.2020202,1.5757576,-0.002634719,-9.845942e-06,-31.543032,-7.7823434,-9.951229,0.0026347374
0.2020202,1.6161616,-0.0026998185,5.904585e-06,-30.240343,-5.809781,-10.289964,0.002699825
0.2020202,1.6565657,-0.002762057,2.5348738e-05,-28.886976,-3.6903117,-10.665032,0.0027621733
0.2020202,1.6969697,-0.002821032,4.8654154e-05,-27.503208,-1.436829,-11.071908,0.0028214515
0.2020202,1.7373737,-0.002876386,7.613003e-05,-26.10984,0.9365542,-11.50572,0.0028773935
0.2020202,1.7777778,-0.0029276423,0.000108163804,-24.726437,3.4145634,-11.961188,0.0029296398
0.2020202,1.8181819,-0.002974283,0.00014493428,-23.372974,5.980178,-12.4326,0.0029778122
0.2020202,1.8585858,-0.003015779,0.00018667616,-22.067392,8.616076,-12.914195,0.003021551
0.2020202,1.8989899,-0.003051661,0.00023364648,-20.826496,11.304458,-13.400415,0.0030605923
0.2020202,1.939394,-0.0030814,0.00028591976,-19.665363,14.026847,-13.885267,0.0030946366
0.2020202,1.979798,-0.0031044297,0.00034375116,-18.598152,16.764236,-14.363237,0.0031234033
0.2020202,2.020202,-0.0031201392,0.00040724687,-17.63558,19.498459,-14.8288765,0.0031466044
0.2020202,2.060606,-0.003127981,0.00047644228,-16.787365,22.210873,-15.277279,0.0031640579
0.2020202,2.10101,-0.0031275004,0.0005513355,-16.060173,24.884174,-15.70369,0.003175725
0.2020202,2.1414142,-0.0031179376,0.0006321408,-15.458432,27.50097,-16.103998,0.0031813735
0.2020202,2.1818182,-0.00309892,0.0007186774,-14.984834,30.045134,-16.47401,0.0031811637
0.2020202,2.2222223,-0.003069941,0.000810856,-14.639057,32.501358,-16.810913,0.0031752205
0.2020202,2.2626262,-0.0030304566,0.0009087231,-14.419973,34.854927,-17.111519,0.0031637708
0.2020202,2.3030303,-0.0029799305,0.0010120012,-14.322766,37.092678,-17.373684,0.003147083
0.2020202,2.3434343,-0.0029179044,0.0011205673,-14.3414135,39.20335,-17.595533,0.0031256739
0.2020202,2.3838384,-0.0028440543,0.0012342501,-14.468901,41.17584,-17.775606,0.0031003256
0.2020202,2.4242425,-0.0027579777,0.0013527218,-14.695846,43.00076,-17.913359,0.0030718558
0.2020202,2.4646466,-0.0026592873,0.001475866,-15.012612,44.67,-18.008017,0.0030413794
0.2020202,2.5050504,-0.0025477037,0.0016031824,-15.407041,46.17683,-18.059568,0.0030101475
0.2020202,2.5454545,-0.0024230257,0.0017344728,-15.867732,47.515846,-18.068235,0.0029798406
0.2020202,2.5858586,-0.0022847354,0.0018693386,-16.381845,48.682697,-18.034666,0.0029520234
0.2020202,2.6262627,-0.0021329783,0.002007394,-16.9362,49.67453,-17.959517,0.0029290318
0.2020202,2.6666667,-0.001967378,0.0021482874,-17.517923,50.489086,-17.843967,0.002913025
0.2020202,2.7070708,-0.0017878152,0.0022915434,-18.113585,51.125664,-17.689278,0.0029064505
0.2020202,2.7474747,-0.0015943386,0.002436811,-18.709843,51.58497,-17.496853,0.0029120375
0.2020202,2.7878788,-0.0013867356,0.0025836155,-19.294464,51.867928,-17.268135,0.0029322526
0.2020202,2.8282828,-0.0011650808,0.0027314834,-19.855053,51.97686,-17.004839,0.0029695816
0.2020202,2.868687,-0.00092928484,0.0028799362,-20.379019,51.91481,-16.708704,0.0030261532
0.2020202,2.909091,-0.0006794892,0.0030286768,-20.855515,51.68568,-16.381311,0.0031039636
0.2020202,2.9494948,-0.00041569397,0.0031770878,-21.274479,51.29431,-16.024546,0.0032041674
0.2020202,2.989899,-0.00013784319,0.0033246772,-21.624605,50.74601,-15.640438,0.0033275336
0.2020202,3.030303,0.000153739,0.0034711342,-21.89712,50.046764,-15.23037,0.0034745373
0.2020202,3.070707,0.0004591383,0.0036158971,-22.083693,49.203186,-14.7967005,0.0036449307
0.2020202,3.1111112,0.00077797845,0.0037585832,-22.175957,48.22247,-14.340947,0.0038382546
0.2020202,3.1515152,0.0011104494,0.0038987407,-22.166378,47.112328,-13.864727,0.004053798
0.2020202,3.191919,0.0014561154,0.0040359683,-22.048939,45.88044,-13.370254,0.0042906078
0.2020202,3.2323232,0.0018149205,0.0041698525,-21.81677,44.535595,-12.859209,0.0045477035
0.2020202,3.2727273,0.0021866076,0.004300019,-21.465528,43.08581,-12.333062,0.0048240456
0.2020202,3.3131313,0.0025711395,0.004426065,-20.989141,41.54068,-11.793951,0.0051186727
0.2020202,3.3535354,0.002968207,0.0045476276,-20.383904,39.908978,-11.2434,0.0054305773
0.2020202,3.3939395,0.0033776462,0.0046644127,-19.645721,38.200157,-10.683193,0.005758927
0.2020202,3.4343433,0.003799256,0.004776121,-18.77137,36.423363,-10.115066,0.006102924
0.2020202,3.4747474,0.0042328015,0.0048822947,-17.758183,34.587875,-9.540755,0.006461688
0.2020202,3.5151515,0.004678171,0.004982869,-16.6023,32.703568,-8.961609,0.006834784
0.2020202,3.5555556,0.0051351227,0.0050774533,-15.302267,30.779566,-8.379448,0.007221497
0.2020202,3.5959597,0.005603388,0.005165835,-13.855741,28.82537,-7.795976,0.0076212734
0.2020202,3.6363637,0.0060828067,0.00524782,-12.262106,26.849411,-7.212483,0.008033688
0.2020202,3.6767676,0.006573163,0.0053231902,-10.519943,24.861023,-6.630617,0.0084583
0.2020202,3.7171717,0.0070742406,0.005391758,-8.626763,22.86963,-6.051804,0.008894714
0.2020202,3.7575758,0.0075859614,0.0054533836,-6.5828447,20.88298,-5.477488,0.009342709
0.2020202,3.7979798,0.008107875,0.005507921,-4.3885045,18.909206,-4.9091086,0.009801776
0.2020202,3.838384,0.008639973,0.005555245,-2.0415785,16.957281,-4.3480425,0.0102718
0.2020202,3.878788,0.009181995,0.005595291,0.45588687,15.033591,-3.7951808,0.010752503
0.2020202,3.9191918,0.009733815,0.0056279534,3.1062703,13.14694,-3.2522323,0.01124371
0.2020202,3.959596,0.010295097,0.005653185,5.9066725,11.303055,-2.7199814,0.011745106
0.2020202,4.0,0.010865796,0.005670948,8.857915,9.509005,-2.1996694,0.012256638
0.25252524,0.04040404,-0.00040723756,7.2008e-05,-0.4627321,-3.9021168,-0.6748265,0.00041355484
0.25252524,0.08080808,-0.00039505213,6.3329935e-05,-1.3072896,-3.932877,-2.0191467,0.0004000961
0.25252524,0.121212125,-0.00039215758,5.541928e-05,-2.2420704,-4.007417,-3.2853863,0.00039605412
0.25252524,0.16161616,-0.00039802864,4.839897e-05,-3.2712903,-4.130091,-4.4707594,0.00040096042
0.25252524,0.2020202,-0.0004121475,4.2077154e-05,-4.3948817,-4.303895,-5.5720396,0.0004142898
0.25252524,0.24242425,-0.00043400005,3.6474317e-05,-5.6117883,-4.5313077,-6.587468,0.00043553003
0.25252524,0.28282827,-0.0004630834,3.1601638e-05,-6.921128,-4.8152823,-7.5151067,0.0004641604
0.25252524,0.32323232,-0.000498835,2.7386472e-05,-8.317728,-5.1566114,-8.3541,0.0004995862
0.25252524,0.36363637,-0.00054073334,2.3826957e-05,-9.797005,-5.5561705,-9.104034,0.000541258
0.25252524,0.4040404,-0.0005882904,2.0734966e-05,-11.350832,-6.0141606,-9.765453,0.0005886557
0.25252524,0.44444445,-0.00064090267,1.8142164e-05,-12.971569,-6.5288734,-10.339149,0.0006411594
0.25252524,0.4848485,-0.0006980747,1.597777e-05,-14.647765,-7.0980887,-10.827154,0.0006982575
0.25252524,0.5252525,-0.0007594377,1.408346e-05,-16.368347,-7.7185025,-11.231879,0.00075956824
0.25252524,0.56565654,-0.00082440674,1.2498349e-05,-18.119942,-8.38549,-11.556889,0.00082450145
0.25252524,0.6060606,-0.000892546,1.1054799e-05,-19.888193,-9.0932045,-11.806007,0.0008926145
0.25252524,0.64646465,-0.0009634234,9.685755e-06,-21.658693,-9.835502,-11.983894,0.00096347206
0.25252524,0.68686867,-0.0010366701,8.2962215e-06,-23.414513,-10.602903,-12.096266,0.0010367032
0.25252524,0.72727275,-0.001111798,6.8470836e-06,-25.139437,-11.387044,-12.148927,0.0011118191
0.25252524,0.7676768,-0.0011885762,5.2712858e-06,-26.816849,-12.177427,-12.148381,0.0011885879
0.25252524,0.8080808,-0.0012666583,3.4514815e-06,-28.429377,-12.962691,-12.10181,0.001266663
0.25252524,0.8484849,-0.0013456903,1.4267862e-06,-29.960505,-13.73054,-12.016681,0.0013456912
0.25252524,0.8888889,-0.0014254227,-8.6426735e-07,-31.393566,-14.468004,-11.900589,0.001425423
0.25252524,0.9292929,-0.0015057027,-3.5576522e-06,-32.71284,-15.16177,-11.761681,0.0015057069
0.25252524,0.969697,-0.0015861578,-6.51367e-06,-33.904213,-15.798094,-11.6076145,0.0015861712
0.25252524,1.010101,-0.0016667396,-9.743497e-06,-34.954254,-16.36298,-11.446669,0.0016667681
0.25252524,1.050505,-0.001747217,-1.3250858e-05,-35.851196,-16.842325,-11.286502,0.0017472673
0.25252524,1.0909091,-0.0018273927,-1.6996637e-05,-36.585323,-17.222923,-11.134525,0.0018274718
0.25252524,1.1313131,-0.001907181,-2.0792708e-05,-37.149128,-17.491802,-10.998089,0.0019072944
0.25252524,1.1717172,-0.0019865483,-2.4614856e-05,-37.535316,-17.635576,-10.883737,0.0019867008
0.25252524,1.2121212,-0.002065163,-2.8338283e-05,-37.742527,-17.644228,-10.797446,0.0020653575
0.25252524,1.2525252,-0.0021429919,-3.1759962e-05,-37.768585,-17.506655,-10.744728,0.0021432273
0.25252524,1.2929293,-0.002220001,-3.4768134e-05,-37.61614,-17.214888,-10.729989,0.0022202733
0.25252524,1.3333334,-0.00229593,-3.7105754e-05,-37.28871,-16.761494,-10.756943,0.0022962298
0.25252524,1.3737373,-0.0023706295,-3.851019e-05,-36.793182,-16.14041,-10.828501,0.0023709422
0.25252524,1.4141414,-0.002444107,-3.880635e-05,-36.139214,-15.349293,-10.946553,0.0024444151
0.25252524,1.4545455,-0.0025159866,-3.7748367e-05,-35.337727,-14.385588,-11.112023,0.0025162697
0.25252524,1.4949495,-0.002586197,-3.499165e-05,-34.40301,-13.250139,-11.324841,0.002586434
0.25252524,1.5353535,-0.0026543774,-3.0327588e-05,-33.35026,-11.945339,-11.583927,0.0026545506
0.25252524,1.5757576,-0.0027204417,-2.3391098e-05,-32.19644,-10.475558,-11.887954,0.0027205423
0.25252524,1.6161616,-0.0027840436,-1.388602e-05,-30.960709,-8.847495,-12.233864,0.0027840782
0.25252524,1.6565657,-0.0028446503,-1.5981495e-06,-29.66141,-7.069069,-12.618338,0.0028446508
0.25252524,1.6969697,-0.002902232,1.3818964e-05,-28.320848,-5.151245,-13.037202,0.002902265
0.25252524,1.7373737,-0.002956301,3.273599e-05,-26.95804,-3.1053138,-13.485749,0.002956482
0.25252524,1.7777778,-0.003006298,5.5380166e-05,-25.593418,-0.944508,-13.958867,0.003006808
0.25252524,1.8181819,-0.0030519813,8.1984326e-05,-24.247496,1.3164557,-14.450976,0.0030530822
0.25252524,1.8585858,-0.0030928142,0.00011284463,-22.93948,3.6617265,-14.956085,0.0030948722
0.25252524,1.8989899,-0.0031282306,0.00014824234,-21.687088,6.07532,-15.46808,0.0031317412
0.25252524,1.939394,-0.0031577647,0.00018824078,-20.507631,8.539323,-15.980983,0.0031633705
0.25252524,1.979798,-0.0031808876,0.00023319572,-19.415627,11.03676,-16.488848,0.003189424
0.25252524,2.020202,-0.003197059,0.00028320216,-18.42406,13.549969,-16.98562,0.0032095779
0.25252524,2.060606,-0.0032056905,0.0003383644,-17.544436,16.06096,-17.465654,0.0032234986
0.25252524,2.10101,-0.0032062866,0.00039884076,-16.784561,18.55265,-17.923615,0.0032309978
0.25252524,2.1414142,-0.00319824,0.00046461448,-16.151672,21.007648,-18.354599,0.0032318116
0.25252524,2.1818182,-0.003180977,0.0005357899,-15.649405,23.410095,-18.753904,0.0032257845
0.25252524,2.2222223,-0.0031540357,0.00061223656,-15.279154,25.74414,-19.117662,0.0032129076
0.25252524,2.2626262,-0.0031167977,0.00069402903,-15.040309,27.995304,-19.442184,0.003193134
0.25252524,2.3030303,-0.003068786,0.0007810313,-14.930582,30.149946,-19.724514,0.0031666162
0.25252524,2.3434343,-0.0030096173,0.00087316893,-14.94465,32.1953,-19.96208,0.003133723
0.25252524,2.3838384,-0.0029387064,0.00097020715,-15.075435,34.120472,-20.153,0.0030947207
0.25252524,2.4242425,-0.0028557815,0.001072038,-15.314744,35.914883,-20.295727,0.0030503694
0.25252524,2.4646466,-0.002760224,0.0011784146,-15.652766,37.56967,-20.389008,0.0030012494
0.25252524,2.5050504,-0.0026519261,0.0012890026,-16.077843,39.07771,-20.43265,0.0029485996
0.25252524,2.5454545,-0.0025304072,0.0014036465,-16.578287,40.431885,-20.426397,0.0028936453
0.25252524,2.5858586,-0.0023953654,0.0015219627,-17.140467,41.62758,-20.370605,0.0028379827
0.25252524,2.6262627,-0.0022466667,0.0016435906,-17.750658,42.66091,-20.265638,0.002783685
0.25252524,2.6666667,-0.0020840839,0.0017682863,-18.396,43.528408,-20.112375,0.0027331742
0.25252524,2.7070708,-0.0019074008,0.0018955283,-19.06076,44.2292,-19.912216,0.00268909
0.25252524,2.7474747,-0.0017163903,0.0020250771,-19.732264,44.762318,-19.666235,0.002654606
0.25252524,2.7878788,-0.0015111864,0.0021562465,-20.395658,45.128227,-19.376335,0.0026330748
0.25252524,2.8282828,-0.0012915917,0.0022889832,-21.038033,45.32833,-19.043793,0.0026282414
0.25252524,2.868687,-0.001057513,0.0024225255,-21.646156,45.36479,-18.670658,0.0026432865
0.25252524,2.909091,-0.00080903247,0.0025566807,-22.207342,45.240753,-18.258705,0.002681632
0.25252524,2.9494948,-0.0005461499,0.0026908768,-22.70998,44.960205,-17.809885,0.0027457417
0.25252524,2.989899,-0.00026895106,0.0028246045,-23.142435,44.527996,-17.3267,0.00283738
0.25252524,3.030303,2.2593886e-05,0.0029576104,-23.495085,43.948822,-16.810507,0.0029576966
0.25252524,3.070707,0.00032828748,0.0030892827,-23.757788,43.22893,-16.264011,0.0031066765
0.25252524,3.1111112,0.0006480403,0.003219312,-23.921375,42.37514,-15.688881,0.003283889
0.25252524,3.1515152,0.000981696,0.0033471324,-23.978464,41.39359,-15.087549,0.0034881257
0.25252524,3.191919,0.0013292171,0.0034724874,-23.920446,40.292587,-14.461895,0.0037181966
0.25252524,3.2323232,0.0016903095,0.0035948046,-23.74157,39.079227,-13.814188,0.0039723753
0.25252524,3.2727273,0.002064839,0.0037138015,-23.435722,37.762115,-13.146296,0.004249221
0.25252524,3.3131313,0.0024527274,0.0038291095,-22.996532,36.349808,-12.460494,0.0045473017
0.25252524,3.3535354,0.002853658,0.003940203,-22.420633,34.85031,-11.758843,0.004865035
0.25252524,3.3939395,0.0032674447,0.0040468937,-21.702648,33.27325,-11.043475,0.005201302
0.25252524,3.4343433,0.0036939867,0.004148813,-20.83876,31.627714,-10.316388,0.0055550146
0.25252524,3.4747474,0.0041330084,0.00424565,-19.827168,29.92198,-9.579221,0.0059251417
0.25252524,3.5151515,0.0045843273,0.0043370537,-18.66347,28.165981,-8.834359,0.0063107917
0.25252524,3.5555556,0.005047675,0.004422876,-17.346378,26.36853,-8.083486,0.0067112483
0.25252524,3.5959597,0.0055228844,0.004502734,-15.873674,24.53886,-7.3286905,0.007125789
0.25252524,3.6363637,0.006009802,0.0045764633,-14.243242,22.686134,-6.5717506,0.007553922
0.25252524,3.6767676,0.0065080635,0.004643796,-12.4541645,20.819174,-5.814424,0.0079949815
0.25252524,3.7171717,0.0070176236,0.0047045974,-10.505712,18.946548,-5.058731,0.0084486855
0.25252524,3.7575758,0.007538151,0.0047587343,-8.397282,17.0767,-4.3060203,0.0089145545
0.25252524,3.7979798,0.008069504,0.0048058694,-6.1272435,15.218858,-3.5585802,0.009392193
0.25252524,3.838384,0.0086114,0.004846124,-3.6972134,13.3798,-2.817351,0.009881352
0.25252524,3.878788,0.009163719,0.004879226,-1.1062039,11.568082,-2.0841815,0.010381743
0.25252524,3.9191918,0.009726148,0.0049051046,1.6454523,9.791077,-1.3604151,0.010893025
0.25252524,3.959596,0.010298546,0.0049237907,4.556817,8.055674,-0.64777607,0.011415068
0.25252524,4.0,0.01088075,0.0049350196,7.627713,6.3690577,0.05243525,0.011947599
0.3030303,0.04040404,-0.00040390715,4.7326088e-05,-0.76855886,-4.028442,-0.48478833,0.0004066703
0.3030303,0.08080808,-0.00039424747,3.8698316e-05,-1.5773962,-4.0260406,-1.872673,0.00039614216
0.3030303,0.121212125,-0.00039408728,3.0873343e-05,-2.4646666,-4.059678,-3.191039,0.00039529477
0.3030303,0.16161616,-0.00040285662,2.3925677e-05,-3.434826,-4.134382,-4.4360657,0.0004035665
0.3030303,0.2020202,-0.00042012706,1.7862767e-05,-4.4902554,-4.2533054,-5.604441,0.00042050664
0.3030303,0.24242425,-0.00044534355,1.2535602e-05,-5.631357,-4.419646,-6.6934333,0.00044551995
0.3030303,0.28282827,-0.00047795847,7.98516e-06,-6.8572187,-4.6363583,-7.7009125,0.00047802518
0.3030303,0.32323232,-0.0005174689,4.1965395e-06,-8.165746,-4.9059386,-8.625113,0.0005174859
0.3030303,0.36363637,-0.00056328997,1.065433e-06,-9.553119,-5.230141,-9.464726,0.00056329096
0.3030303,0.4040404,-0.00061490387,-1.359731e-06,-11.014019,-5.609605,-10.219617,0.0006149054
0.3030303,0.44444445,-0.00067173317,-3.3099204e-06,-12.540796,-6.0445967,-10.889823,0.0006717413
0.3030303,0.4848485,-0.00073324144,-4.6808273e-06,-14.125795,-6.5346284,-11.476335,0.00073325634
0.3030303,0.5252525,-0.00079896674,-5.64754e-06,-15.758577,-7.078052,-11.980795,0.0007989867
0.3030303,0.56565654,-0.00086830184,-6.35162e-06,-17.428173,-7.671919,-12.405671,0.00086832506
0.3030303,0.6060606,-0.0009408891,-6.712973e-06,-19.121529,-8.312226,-12.753891,0.0009409131
0.3030303,0.64646465,-0.001016181,-6.99237e-06,-20.825644,-8.99448,-13.029616,0.0010162051
0.3030303,0.68686867,-0.0010936633,-7.0575625e-06,-22.525755,-9.712415,-13.237215,0.001093686
0.3030303,0.72727275,-0.00117312,-7.260591e-06,-24.206583,-10.458468,-13.381917,0.0011731425
0.3030303,0.7676768,-0.0012539849,-7.521361e-06,-25.852161,-11.224569,-13.469439,0.0012540075
0.3030303,0.8080808,-0.0013359077,-8.016825e-06,-27.446854,-12.001285,-13.506198,0.0013359318
0.3030303,0.8484849,-0.0014186017,-8.730218e-06,-28.973629,-12.777891,-13.499143,0.0014186285
0.3030303,0.8888889,-0.0015018173,-9.756535e-06,-30.41692,-13.542951,-13.45534,0.0015018489
0.3030303,0.9292929,-0.0015851706,-1.1226162e-05,-31.761631,-14.285076,-13.38245,0.0015852103
0.3030303,0.969697,-0.001668483,-1.3032928e-05,-32.99239,-14.990873,-13.288211,0.0016685339
0.3030303,1.010101,-0.0017515533,-1.5394762e-05,-34.09621,-15.6479645,-13.180135,0.0017516209
0.3030303,1.050505,-0.0018341914,-1.8142164e-05,-35.059563,-16.24233,-13.066326,0.0018342811
0.3030303,1.0909091,-0.001916144,-2.1319836e-05,-35.87228,-16.761072,-12.954331,0.0019162627
0.3030303,1.1313131,-0.001997348,-2.492778e-05,-36.525448,-17.191566,-12.85125,0.0019975035
0.3030303,1.1717172,-0.0020776577,-2.890639e-05,-37.010696,-17.519938,-12.764473,0.0020778587
0.3030303,1.2121212,-0.002157025,-3.306195e-05,-37.32433,-17.735195,-12.699943,0.0021572784
0.3030303,1.2525252,-0.002235122,-3.7340447e-05,-37.463024,-17.82573,-12.663982,0.0022354338
0.3030303,1.2929293,-0.0023120232,-4.17158e-05,-37.42636,-17.7817,-12.661577,0.0023123997
0.3030303,1.3333334,-0.0023875237,-4.585646e-05,-37.217045,-17.594074,-12.697114,0.002387964
0.3030303,1.3737373,-0.0024615824,-4.9654394e-05,-36.83975,-17.255789,-12.774171,0.0024620832
0.3030303,1.4141414,-0.0025340281,-5.29401e-05,-36.30153,-16.761147,-12.895325,0.002534581
0.3030303,1.4545455,-0.0026046522,-5.5471435e-05,-35.61184,-16.106337,-13.06246,0.002605243
0.3030303,1.4949495,-0.0026734322,-5.7032332e-05,-34.783096,-15.28936,-13.276172,0.0026740406
0.3030303,1.5353535,-0.002740141,-5.723536e-05,-33.828888,-14.309779,-13.53643,0.0027407387
0.3030303,1.5757576,-0.002804447,-5.5948272e-05,-32.764614,-13.169516,-13.841993,0.002805005
0.3030303,1.6161616,-0.0028662346,-5.2951276e-05,-31.608648,-11.8731165,-14.190874,0.0028667238
0.3030303,1.6565657,-0.0029251538,-4.769489e-05,-30.378782,-10.425381,-14.580259,0.0029255426
0.3030303,1.6969697,-0.0029810406,-4.005991e-05,-29.095304,-8.834493,-15.006194,0.0029813098
0.3030303,1.7373737,-0.0030334257,-2.977252e-05,-27.778193,-7.1094003,-15.464695,0.0030335719
0.3030303,1.7777778,-0.003082011,-1.6486272e-05,-26.448456,-5.2617054,-15.950496,0.003082055
0.3030303,1.8181819,-0.0031263568,1.0058284e-07,-25.125862,-3.3031564,-16.458242,0.0031263568
0.3030303,1.8585858,-0.003166061,2.0157546e-05,-23.830261,-1.2476267,-16.982162,0.0031661252
0.3030303,1.8989899,-0.0032005608,4.41093e-05,-22.581646,0.8897326,-17.515572,0.0032008647
0.3030303,1.939394,-0.0032296367,7.205084e-05,-21.396915,3.0938382,-18.052692,0.0032304404
0.3030303,1.979798,-0.003252495,0.000104326755,-20.292944,5.3482914,-18.586937,0.0032541677
0.3030303,2.020202,-0.003268715,0.00014097057,-19.283937,7.636511,-19.111832,0.0032717532
0.3030303,2.060606,-0.0032777973,0.00018232502,-18.383224,9.941313,-19.621117,0.003282864
0.3030303,2.10101,-0.0032791458,0.00022839196,-17.601053,12.245975,-20.10892,0.00328709
0.3030303,2.1414142,-0.0032722056,0.00027937256,-16.94461,14.534332,-20.569523,0.00328411
0.3030303,2.1818182,-0.0032564066,0.0003352724,-16.420662,16.789793,-20.997713,0.0032736205
0.3030303,2.2222223,-0.0032313205,0.0003961809,-16.032257,18.996843,-21.38851,0.0032555172
0.3030303,2.2626262,-0.0031962208,0.00046205893,-15.779756,21.140707,-21.737743,0.0032294467
0.3030303,2.3030303,-0.0031506717,0.00053296983,-15.661752,23.207596,-22.041603,0.0031954327
0.3030303,2.3434343,-0.0030941814,0.00060871243,-15.675299,25.183992,-22.296604,0.0031534885
0.3030303,2.3838384,-0.0030262172,0.00068932585,-15.8132515,27.05855,-22.500298,0.0031037333
0.3030303,2.4242425,-0.0029462911,0.00077457726,-16.068914,28.819967,-22.650476,0.0030464078
0.3030303,2.4646466,-0.0028540567,0.0008642804,-16.431665,30.45911,-22.745632,0.0029820497
0.3030303,2.5050504,-0.0027490743,0.0009583393,-16.891665,31.966932,-22.784399,0.002911327
0.3030303,2.5454545,-0.0026309043,0.0010564346,-17.435516,33.33663,-22.766273,0.0028350858
0.3030303,2.5858586,-0.002499316,0.0011582831,-18.050331,34.56224,-22.691288,0.0027546687
0.3030303,2.6262627,-0.0023539178,0.001263624,-18.722082,35.638676,-22.559423,0.0026716427
0.3030303,2.6666667,-0.0021945946,0.0013722219,-19.435759,36.562515,-22.371317,0.0025882886
0.3030303,2.7070708,-0.0020210482,0.0014836388,-20.176971,37.33064,-22.128096,0.0025071537
0.3030303,2.7474747,-0.0018330514,0.0015974808,-20.92995,37.94236,-21.831055,0.002431465
0.3030303,2.7878788,-0.001630418,0.0017134966,-21.680101,38.39659,-21.481241,0.0023652343
0.3030303,2.8282828,-0.0014132522,0.001831173,-22.413136,38.694,-21.08088,0.0023131096
0.3030303,2.868687,-0.0011813417,0.0019501355,-23.113417,38.83619,-20.63174,0.002280043
0.3030303,2.909091,-0.0009345934,0.002069939,-23.768543,38.825073,-20.135511,0.0022711477
0.3030303,2.9494948,-0.0006731488,0.0021902444,-24.364605,38.664112,-19.594751,0.0022913532
0.3030303,2.989899,-0.00039686635,0.002310574,-24.88945,38.35708,-19.011446,0.0023444095
0.3030303,3.030303,-0.00010591373,0.0024304492,-25.331642,37.90805,-18.387962,0.002432756
0.3030303,3.070707,0.00019969791,0.0025494834,-25.679766,37.322983,-17.726645,0.0025572926
0.3030303,3.1111112,0.0005198568,0.0026672203,-25.924265,36.606716,-17.029755,0.0027174097
0.3030303,3.1515152,0.000854481,0.0027832482,-26.056196,35.766026,-16.300003,0.0029114615
0.3030303,3.191919,0.0012033582,0.002897147,-26.06675,34.807873,-15.539619,0.0031371217
0.3030303,3.2323232,0.0015664436,0.003008536,-25.948578,33.739296,-14.751113,0.0033919073
0.3030303,3.2727273,0.0019435249,0.0031169634,-25.694708,32.567654,-13.936849,0.0036732478
0.3030303,3.3131313,0.0023343675,0.0032220604,-25.29954,31.30119,-13.099169,0.003978812
0.3030303,3.3535354,0.002738919,0.0033234302,-24.7576,29.9478,-12.240534,0.0043066074
0.3030303,3.3939395,0.0031568557,0.0034207366,-24.064177,28.516161,-11.363497,0.0046548015
0.3030303,3.4343433,0.0035880916,0.0035136752,-23.215326,27.014948,-10.470222,0.005021983
0.3030303,3.4747474,0.0040323585,0.0036018975,-22.207136,25.452812,-9.563068,0.0054068086
0.3030303,3.5151515,0.004489433,0.0036850525,-21.037348,23.838703,-8.644435,0.0058081513
0.3030303,3.5555556,0.0049591735,0.0037628654,-19.703505,22.181135,-7.716568,0.006225155
0.3030303,3.5959597,0.005441297,0.0038350392,-18.20315,20.489363,-6.781766,0.006656969
0.3030303,3.6363637,0.00593552,0.003901448,-16.53464,18.772346,-5.842176,0.0071029356
0.3030303,3.6767676,0.006441746,0.0039617494,-14.69693,17.038723,-4.9000607,0.0075625093
0.3030303,3.7171717,0.006959755,0.004015822,-12.688963,15.29721,-3.957274,0.008035236
0.3030303,3.7575758,0.007489186,0.004063353,-10.51056,13.556311,-3.016099,0.00852049
0.3030303,3.7979798,0.008029964,0.004104294,-8.160893,11.824374,-2.0783575,0.009018068
0.3030303,3.838384,0.0085817985,0.004138437,-5.6403203,10.109526,-1.1463004,0.009527535
0.3030303,3.878788,0.009144444,0.0041656503,-2.9489865,8.419458,-0.22162075,0.010048557
0.3030303,3.9191918,0.009717774,0.0041858396,-0.08684974,6.7621017,0.6939571,0.010580944
0.3030303,3.959596,0.010301504,0.004198947,2.9445863,5.1442256,1.5987352,0.011124395
0.3030303,4.0,0.010895383,0.004204846,6.1441708,3.5728526,2.4909565,0.011678617
0.35353535,0.04040404,-0.00040134043,2.6896596e-05,-1.1266594,-4.210759,-0.38154048,0.0004022407
0.35353535,0.08080808,-0.00039417297,1.8183142e-05,-1.9139487,-4.2059693,-1.8056768,0.00039459215
0.35353535,0.121212125,-0.00039661676,1.0296702e-05,-2.7682176,-4.230806,-3.1681955,0.0003967504
0.35353535,0.16161616,-0.0004082136,3.254041e-06,-3.6926608,-4.288711,-4.4652386,0.00040822654
0.35353535,0.2020202,-0.00042851642,-2.9616058e-06,-4.69126,-4.383816,-5.6930614,0.00042852666
0.35353535,0.24242425,-0.00045692548,-8.370727e-06,-5.765726,-4.519433,-6.8482513,0.00045700214
0.35353535,0.28282827,-0.0004929453,-1.2986362e-05,-6.9164915,-4.6987576,-7.9281106,0.0004931163
0.35353535,0.32323232,-0.0005360432,-1.6868114e-05,-8.143416,-4.92483,-8.930295,0.00053630857
0.35353535,0.36363637,-0.0005855374,-2.0056963e-05,-9.443517,-5.200071,-9.852893,0.0005858808
0.35353535,0.4040404,-0.000641007,-2.2538006e-05,-10.813095,-5.526135,-10.695134,0.0006414031
0.35353535,0.44444445,-0.00070185587,-2.4460256e-05,-12.246599,-5.9045725,-11.456074,0.00070228195
0.35353535,0.4848485,-0.0007675104,-2.5803223e-05,-13.737609,-6.3355184,-12.135803,0.00076794403
0.35353535,0.5252525,-0.00083741173,-2.6658177e-05,-15.278508,-6.8195457,-12.735425,0.00083783595
0.35353535,0.56565654,-0.00091099367,-2.717413e-05,-16.858858,-7.35447,-13.256401,0.0009113989
0.35353535,0.6060606,-0.0009878613,-2.7321279e-05,-18.468609,-7.939113,-13.700774,0.0009882391
0.35353535,0.64646465,-0.0010673515,-2.7319416e-05,-20.095972,-8.569975,-14.071758,0.0010677011
0.35353535,0.68686867,-0.0011490732,-2.7164817e-05,-21.726625,-9.242223,-14.373016,0.0011493943
0.35353535,0.72727275,-0.0012325607,-2.701208e-05,-23.348818,-9.951678,-14.608777,0.0012328567
0.35353535,0.7676768,-0.0013174266,-2.69413e-05,-24.946882,-10.691305,-14.784058,0.001317702
0.35353535,0.8080808,-0.0014032312,-2.7038157e-05,-26.505608,-11.453022,-14.904764,0.0014034916
0.35353535,0.8484849,-0.0014895499,-2.7444214e-05,-28.010708,-12.22952,-14.976604,0.0014898027
0.35353535,0.8888889,-0.001576189,-2.8157607e-05,-29.445782,-13.0098715,-15.006799,0.0015764404
0.35353535,0.9292929,-0.0016626045,-2.9359013e-05,-30.796238,-13.784339,-15.001992,0.0016628638
0.35353535,0.969697,-0.0017488301,-3.107637e-05,-32.04825,-14.541944,-14.969527,0.0017491062
0.35353535,1.010101,-0.0018343553,-3.335066e-05,-33.18632,-15.2698345,-14.917252,0.0018346584
0.35353535,1.050505,-0.0019191913,-3.618747e-05,-34.198776,-15.956382,-14.852528,0.0019195324
0.35353535,1.0909091,-0.0020029843,-3.970042e-05,-35.073666,-16.58895,-14.782991,0.0020033778
0.35353535,1.1313131,-0.0020857044,-4.386343e-05,-35.800953,-17.15446,-14.715973,0.0020861656
0.35353535,1.1717172,-0.0021670312,-4.855357e-05,-36.372093,-17.640232,-14.658867,0.002167575
0.35353535,1.2121212,-0.002247084,-5.3880736e-05,-36.780125,-18.03384,-14.618503,0.0022477298
0.35353535,1.2525252,-0.002325505,-5.9701502e-05,-37.021923,-18.324224,-14.601001,0.0023262713
0.35353535,1.2929293,-0.0024023913,-6.589852e-05,-37.09483,-18.499704,-14.612002,0.002403295
0.35353535,1.3333334,-0.0024775788,-7.241964e-05,-36.999176,-18.550835,-14.65679,0.002478637
0.35353535,1.3737373,-0.0025508478,-7.905997e-05,-36.73736,-18.468302,-14.739449,0.0025520728
0.35353535,1.4141414,-0.00262231,-8.566119e-05,-36.315594,-18.245142,-14.8633175,0.002623709
0.35353535,1.4545455,-0.0026917122,-9.215623e-05,-35.740776,-17.875463,-15.030974,0.0026932894
0.35353535,1.4949495,-0.002758991,-9.8165125e-05,-35.022507,-17.354124,-15.2439575,0.0027607367
0.35353535,1.5353535,-0.0028239526,-0.00010350905,-34.174007,-16.679857,-15.502739,0.0028258488
0.35353535,1.5757576,-0.0028864704,-0.00010801852,-33.208797,-15.851617,-15.807017,0.002888491
0.35353535,1.6161616,-0.002946362,-0.00011141226,-32.14342,-14.870732,-16.155472,0.0029484676
0.35353535,1.6565657,-0.0030033477,-0.00011334196,-30.994799,-13.740116,-16.545784,0.0030054857
0.35353535,1.6969697,-0.0030572452,-0.000113522634,-29.78226,-12.465026,-16.974714,0.003059352
0.35353535,1.7373737,-0.003107749,-0.00011177361,-28.52559,-11.052388,-17.438578,0.0031097585
0.35353535,1.7777778,-0.00315452,-0.00010770559,-27.244947,-9.510668,-17.932661,0.0031563581
0.35353535,1.8181819,-0.0031972677,-0.00010104105,-25.960524,-7.8498416,-18.451588,0.0031988637
0.35353535,1.8585858,-0.0032355525,-9.1539696e-05,-24.692575,-6.081562,-18.989645,0.003236847
0.35353535,1.8989899,-0.0032689832,-7.8864396e-05,-23.46138,-4.2188644,-19.540745,0.0032699346
0.35353535,1.939394,-0.0032969862,-6.28382e-05,-22.285631,-2.2754214,-20.098116,0.003297585
0.35353535,1.979798,-0.0033192933,-4.311651e-05,-21.182573,-0.26589036,-20.655256,0.0033195734
0.35353535,2.020202,-0.0033353493,-1.9520521e-05,-20.168667,1.794162,-21.205404,0.0033354063
0.35353535,2.060606,-0.0033445023,8.0652535e-06,-19.257793,3.8888042,-21.741655,0.003344512
0.35353535,2.10101,-0.003346365,4.0015206e-05,-18.461857,6.002461,-22.25768,0.0033466043
0.35353535,2.1414142,-0.0033403188,7.6329336e-05,-17.791378,8.118859,-22.746922,0.0033411907
0.35353535,2.1818182,-0.0033257157,0.000117255375,-17.252739,10.222366,-23.20352,0.003327782
0.35353535,2.2222223,-0.0033022165,0.00016276538,-16.852327,12.297098,-23.621952,0.0033062254
0.35353535,2.2626262,-0.0032690726,0.00021294318,-16.59135,14.328715,-23.997028,0.0032760007
0.35353535,2.3030303,-0.0032258108,0.00026784465,-16.470278,16.30271,-24.323975,0.0032369115
0.35353535,2.3434343,-0.0031719394,0.0003274046,-16.487055,18.20591,-24.598886,0.003188792
0.35353535,2.3838384,-0.0031067692,0.00039168634,-16.63601,20.02589,-24.818323,0.0031313626
0.35353535,2.4242425,-0.003029991,0.0004605148,-16.910442,21.75132,-24.979233,0.003064787
0.35353535,2.4646466,-0.0029409863,0.0005338136,-17.302341,23.371555,-25.079424,0.0029890395
0.35353535,2.5050504,-0.002839487,0.0006113667,-17.799652,24.877901,-25.117222,0.0029045579
0.35353535,2.5454545,-0.0027248487,0.0006930977,-18.390774,26.262135,-25.09131,0.002811616
0.35353535,2.5858586,-0.0025968812,0.00077874213,-19.062786,27.517311,-25.000952,0.002711131
0.35353535,2.6262627,-0.002455119,0.00086795446,-19.80045,28.637768,-24.846298,0.0026040266
0.35353535,2.6666667,-0.0022992454,0.00096061267,-20.588333,29.619204,-24.627354,0.002491848
0.35353535,2.7070708,-0.002129212,0.0010563098,-21.41127,30.457775,-24.344944,0.0023768328
0.35353535,2.7474747,-0.0019445159,0.0011548186,-22.252886,31.151464,-23.999895,0.002261581
0.35353535,2.7878788,-0.0017450042,0.0012556855,-23.097206,31.698528,-23.593763,0.0021498338
0.35353535,2.8282828,-0.0015306361,0.001358578,-23.928268,32.098797,-23.128222,0.0020466023
0.35353535,2.868687,-0.0013013631,0.0014632316,-24.730654,32.3527,-22.605076,0.0019582117
0.35353535,2.909091,-0.0010568537,0.0015690392,-25.488422,32.46198,-22.026546,0.001891778
0.35353535,2.9494948,-0.00079724565,0.001675724,-26.187605,32.428562,-21.394697,0.0018557078
0.35353535,2.989899,-0.00052236766,0.0017828913,-26.814463,32.2557,-20.712173,0.00185784
0.35353535,3.030303,-0.00023241714,0.0018901052,-27.355673,31.946835,-19.98108,0.0019043412
0.35353535,3.070707,7.265061e-05,0.0019968282,-27.799492,31.50648,-19.204584,0.0019981496
0.35353535,3.1111112,0.0003927648,0.0021027625,-28.134775,30.93947,-18.384937,0.0021391294
0.35353535,3.1515152,0.00072785467,0.0022074627,-28.35089,30.251762,-17.52483,0.0023243632
0.35353535,3.191919,0.0010777675,0.002310521,-28.43854,29.44891,-16.627073,0.0025495272
0.35353535,3.2323232,0.0014423355,0.0024114568,-28.389244,28.537981,-15.694769,0.0028098852
0.35353535,3.2727273,0.0018216111,0.0025099646,-28.19541,27.525543,-14.729986,0.0031013205
0.35353535,3.3131313,0.0022151582,0.0026055183,-27.850845,26.418945,-13.736231,0.0034198905
0.35353535,3.3535354,0.002622895,0.0026978422,-27.349163,25.225773,-12.715702,0.0037627025
0.35353535,3.3939395,0.0030447543,0.0027865227,-26.68494,23.954323,-11.6713705,0.0041273767
0.35353535,3.4343433,0.0034803562,0.0028712098,-25.854395,22.612291,-10.606004,0.004511843
0.35353535,3.4747474,0.003929723,0.0029515503,-24.852953,21.208485,-9.5221,0.00491471
0.35353535,3.5151515,0.0043923967,0.0030273125,-23.677979,19.75105,-8.422663,0.005334582
0.35353535,3.5555556,0.004868295,0.0030980594,-22.327091,18.248413,-7.3100243,0.005770465
0.35353535,3.5959597,0.00535715,0.003163617,-20.79826,16.709364,-6.186903,0.0062215375
0.35353535,3.6363637,0.005858764,0.0032235356,-19.088774,15.143008,-5.056179,0.0066870246
0.35353535,3.6767676,0.006372843,0.003277869,-17.198812,13.557007,-3.9197109,0.0071664182
0.35353535,3.7171717,0.0068992525,0.0033261245,-15.12678,11.960738,-2.780433,0.007659164
0.35353535,3.7575758,0.007437747,0.0033681858,-12.871811,10.362572,-1.6407039,0.008164849
0.35353535,3.7979798,0.00798801,0.0034038713,-10.435443,8.769784,-0.50293565,0.008683008
0.35353535,3.838384,0.00854994,0.0034329984,-7.815849,7.1919546,0.63091016,0.009213411
0.35353535,3.878788,0.009123135,0.0034555169,-5.014889,5.6358953,1.7583783,0.0097556235
0.35353535,3.9191918,0.009707484,0.0034711612,-2.032618,4.109731,2.8772333,0.010309424
0.35353535,3.959596,0.010302696,0.0034799315,1.1289272,2.6201575,3.985982,0.010874533
0.35353535,4.0,0.010908607,0.0034816274,4.4705987,1.1753585,5.0819373,0.01145074
0.4040404,0.04040404,-0.00039975718,9.974465e-06,-1.5093875,-4.4282236,-0.36524948,0.0003998816
0.4040404,0.08080808,-0.00039493293,1.0281801e-06,-2.2896187,-4.449807,-1.8184512,0.00039493426
0.4040404,0.121212125,-0.00039998814,-7.0668757e-06,-3.122987,-4.494363,-3.2179794,0.00040005057
0.4040404,0.16161616,-0.00041423738,-1.4422461e-05,-4.014128,-4.5650454,-4.5594707,0.00041448837
0.4040404,0.2020202,-0.0004373677,-2.1034852e-05,-4.9672847,-4.6656976,-5.8388066,0.00043787324
0.4040404,0.24242425,-0.00046881288,-2.6855618e-05,-5.985684,-4.7997303,-7.0525684,0.00046958146
0.4040404,0.28282827,-0.000508029,-3.1992793e-05,-7.070382,-4.9702215,-8.197096,0.00050903537
0.4040404,0.32323232,-0.0005544163,-3.6407262e-05,-8.222007,-5.1802797,-9.269842,0.0005556104
0.4040404,0.36363637,-0.00060752407,-4.0072948e-05,-9.4401245,-5.432865,-10.2682295,0.0006088443
0.4040404,0.4040404,-0.0006666742,-4.318729e-05,-10.721947,-5.7308683,-11.190584,0.0006680716
0.4040404,0.44444445,-0.0007312447,-4.567951e-05,-12.063823,-6.075931,-12.035708,0.00073267
0.4040404,0.4848485,-0.0008007921,-4.765019e-05,-13.460928,-6.4694114,-12.802723,0.0008022086
0.4040404,0.5252525,-0.0008746162,-4.912354e-05,-14.9065695,-6.912383,-13.492008,0.0008759946
0.4040404,0.56565654,-0.00095229223,-5.0224364e-05,-16.39344,-7.4050937,-14.104073,0.00095361576
0.4040404,0.6060606,-0.0010331497,-5.1040202e-05,-17.912268,-7.9470863,-14.6403265,0.0010344096
0.4040404,0.64646465,-0.0011167191,-5.156547e-05,-19.45307,-8.536415,-15.103188,0.001117909
0.4040404,0.68686867,-0.0012024827,-5.2057207e-05,-21.004894,-9.1711645,-15.495005,0.001203609
0.4040404,0.72727275,-0.0012899078,-5.248189e-05,-22.555277,-9.847387,-15.819911,0.001290975
0.4040404,0.7676768,-0.001378566,-5.2943826e-05,-24.090683,-10.560132,-16.081669,0.0013795823
0.4040404,0.8080808,-0.0014681257,-5.363673e-05,-25.598396,-11.304759,-16.28546,0.0014691051
0.4040404,0.8484849,-0.0015579984,-5.4627657e-05,-27.064207,-12.074014,-16.436579,0.0015589558
0.4040404,0.8888889,-0.0016479492,-5.604513e-05,-28.473494,-12.860168,-16.541079,0.001648902
0.4040404,0.9292929,-0.0017375201,-5.7870522e-05,-29.811737,-13.654249,-16.605654,0.0017384836
0.4040404,0.969697,-0.0018264689,-6.0342252e-05,-31.065508,-14.447459,-16.636759,0.0018274654
0.4040404,1.010101,-0.001914613,-6.352924e-05,-32.22022,-15.228202,-16.64213,0.0019156666
0.4040404,1.050505,-0.0020016357,-6.7371875e-05,-33.263287,-15.98547,-16.628786,0.0020027691
0.4040404,1.0909091,-0.0020873174,-7.1998686e-05,-34.182636,-16.707737,-16.604378,0.0020885586
0.4040404,1.1313131,-0.0021714345,-7.7441335e-05,-34.96786,-17.383581,-16.575972,0.002172815
0.4040404,1.1717172,-0.0022540167,-8.3694234e-05,-35.609436,-17.999836,-16.551311,0.00225557
0.4040404,1.2121212,-0.0023347214,-9.0871006e-05,-36.09967,-18.545021,-16.53722,0.0023364893
0.4040404,1.2525252,-0.002413623,-9.877235e-05,-36.43315,-19.006647,-16.540157,0.0024156433
0.4040404,1.2929293,-0.0024904571,-0.00010744855,-36.605656,-19.373405,-16.566523,0.002492774
0.4040404,1.3333334,-0.002565287,-0.00011678785,-36.616505,-19.634554,-16.62189,0.0025679441
0.4040404,1.3737373,-0.0026379824,-0.00012675673,-36.466213,-19.78009,-16.71091,0.002641026
0.4040404,1.4141414,-0.0027084537,-0.0001371447,-36.158016,-19.801231,-16.837835,0.0027119238
0.4040404,1.4545455,-0.002776537,-0.00014777482,-35.697647,-19.690441,-17.005705,0.0027804668
0.4040404,1.4949495,-0.0028423108,-0.0001585763,-35.09346,-19.441607,-17.216745,0.0028467309
0.4040404,1.5353535,-0.0029055327,-0.00016928092,-34.355206,-19.04987,-17.472685,0.0029104599
0.4040404,1.5757576,-0.0029661767,-0.00017973036,-33.49572,-18.512705,-17.773544,0.002971617
0.4040404,1.6161616,-0.0030240044,-0.00018959492,-32.52952,-17.82909,-18.118937,0.003029942
0.4040404,1.6565657,-0.003078919,-0.00019872561,-31.4732,-16.999897,-18.507067,0.0030853255
0.4040404,1.6969697,-0.003130693,-0.0002067294,-30.342892,-16.026676,-18.935732,0.0031375112
0.4040404,1.7373737,-0.0031791404,-0.00021340884,-29.159504,-14.914733,-19.401087,0.003186295
0.4040404,1.7777778,-0.0032238811,-0.00021849945,-27.941399,-13.670067,-19.899385,0.0032312772
0.4040404,1.8181819,-0.0032647252,-0.00022163801,-26.708935,-12.299727,-20.425636,0.0032722398
0.4040404,1.8585858,-0.0033013597,-0.00022254512,-25.483036,-10.813894,-20.97411,0.0033088522
0.4040404,1.8989899,-0.0033332705,-0.0002210401,-24.283558,-9.223076,-21.538746,0.0033405914
0.4040404,1.939394,-0.0033601522,-0.00021665171,-23.129738,-7.538947,-22.1129,0.0033671295
0.4040404,1.979798,-0.0033816136,-0.00020926446,-22.040842,-5.7747717,-22.689955,0.0033880824
0.4040404,2.020202,-0.0033969954,-0.00019859523,-21.033373,-3.9445128,-23.262606,0.0034027956
0.4040404,2.060606,-0.0034060217,-0.00018431246,-20.123577,-2.0627263,-23.823633,0.003411005
0.4040404,2.10101,-0.0034080744,-0.00016635284,-19.32421,-0.14419828,-24.36637,0.003412132
0.4040404,2.1414142,-0.0034026727,-0.00014438853,-18.648026,1.7958152,-24.883566,0.003405735
0.4040404,2.1818182,-0.0033891015,-0.00011828169,-18.102968,3.7420697,-25.368633,0.0033911648
0.4040404,2.2222223,-0.0033669174,-8.798018e-05,-17.696302,5.6796265,-25.81515,0.0033680669
0.4040404,2.2626262,-0.0033355318,-5.329959e-05,-17.432909,7.593191,-26.217154,0.0033359576
0.4040404,2.3030303,-0.0032945015,-1.4102086e-05,-17.313309,9.469261,-26.569448,0.0032945317
0.4040404,2.3434343,-0.0032430664,2.9560179e-05,-17.336882,11.293919,-26.866957,0.0032432012
0.4040404,2.3838384,-0.0031807795,7.7687204e-05,-17.49974,13.054914,-27.10529,0.003181728
0.4040404,2.4242425,-0.003107082,0.00013031252,-17.796768,14.739839,-27.280872,0.0031098134
0.4040404,2.4646466,-0.003021557,0.00018738024,-18.219332,16.338163,-27.390608,0.0030273614
0.4040404,2.5050504,-0.0029235072,0.00024863705,-18.757856,17.839554,-27.43197,0.0029340612
0.4040404,2.5454545,-0.002812583,0.0003140904,-19.399567,19.236132,-27.403187,0.0028300665
0.4040404,2.5858586,-0.0026884302,0.00038359314,-20.131506,20.519716,-27.302887,0.0027156584
0.4040404,2.6262627,-0.0025505535,0.00045695528,-20.939066,21.683954,-27.130465,0.002591164
0.4040404,2.6666667,-0.0023986325,0.0005338192,-21.806164,22.72341,-26.885895,0.0024573158
0.4040404,2.7070708,-0.0022323318,0.0006140396,-22.716795,23.633682,-26.569153,0.002315243
0.4040404,2.7474747,-0.0020512864,0.00069728866,-23.653603,24.41144,-26.181143,0.002166561
0.4040404,2.7878788,-0.0018553399,0.0007833075,-24.598719,25.05501,-25.72319,0.0020139157
0.4040404,2.8282828,-0.0016442649,0.00087174214,-25.536118,25.562351,-25.196566,0.0018610592
0.4040404,2.868687,-0.0014179833,0.0009621298,-26.44808,25.933786,-24.603481,0.0017135841
0.4040404,2.909091,-0.0011762008,0.0010543261,-27.318222,26.1694,-23.945507,0.0015795733
0.4040404,2.9494948,-0.00091893226,0.0011477303,-28.130167,26.271044,-23.225567,0.0014702793
0.4040404,2.989899,-0.0006460883,0.0012420714,-28.869183,26.240574,-22.445665,0.0014000612
0.4040404,3.030303,-0.0003575422,0.0013368828,-29.519976,26.081102,-21.608929,0.0013838685
0.4040404,3.070707,-5.35883e-05,0.0014318079,-30.07015,25.795782,-20.717842,0.0014328103
0.4040404,3.1111112,0.00026595965,0.0015263949,-30.506117,25.389149,-19.775455,0.0015493921
0.4040404,3.1515152,0.00060108304,0.0016202405,-30.816813,24.865894,-18.784775,0.0017281435
0.4040404,3.191919,0.000951495,0.0017129192,-30.991114,24.231379,-17.74868,0.0019594477
0.4040404,3.2323232,0.0013172738,0.0018040203,-31.019756,23.49148,-16.670444,0.0022337635
0.4040404,3.2727273,0.0016981326,0.0018931078,-30.894333,22.652077,-15.553104,0.0025431302
0.4040404,3.3131313,0.0020940043,0.0019798595,-30.607365,21.72008,-14.39982,0.0028817873
0.4040404,3.3535354,0.0025047734,0.0020637428,-30.151308,20.702894,-13.213619,0.0032454468
0.4040404,3.3939395,0.0029301494,0.002144523,-29.521063,19.607454,-11.997695,0.0036310817
0.4040404,3.4343433,0.003369972,0.002221779,-28.712503,18.440754,-10.755013,0.0040364605
0.4040404,3.4747474,0.0038240515,0.0022951243,-27.720388,17.21157,-9.488894,0.0044599287
0.4040404,3.5151515,0.0042920783,0.0023642518,-26.541931,15.927172,-8.202192,0.004900166
0.4040404,3.5555556,0.004774064,0.0024289256,-25.173319,14.596589,-6.8978977,0.005356432
0.4040404,3.5959597,0.005269561,0.0024886914,-23.614023,13.226982,-5.5790596,0.00582768
0.4040404,3.6363637,0.005778458,0.0025432575,-21.860497,11.827682,-4.248841,0.0063133775
0.4040404,3.6767676,0.006300386,0.0025924658,-19.913233,10.406397,-2.9098852,0.00681291
0.4040404,3.7171717,0.006835252,0.0026360312,-17.770756,8.971638,-1.5651754,0.0073259356
0.4040404,3.7575758,0.0073827244,0.0026737163,-15.432749,7.5319796,-0.21749426,0.007851967
0.4040404,3.7979798,0.007942591,0.002705303,-12.900143,6.094867,1.1307187,0.008390674
0.4040404,3.838384,0.0085147135,0.0027306033,-10.172077,4.6689825,2.4764493,0.008941842
0.4040404,3.878788,0.009098623,0.0027495027,-7.250586,3.2615762,3.817527,0.009504983
0.4040404,3.9191918,0.009694193,0.0027618557,-4.1356683,1.8809365,5.151201,0.010079941
0.4040404,3.959596,0.010301176,0.0027673896,-0.8288436,0.5341975,6.4750686,0.010666428
0.4040404,4.0,0.010919351,0.002766125,2.668027,-0.7717727,7.786944,0.0112642655
0.45454544,0.04040404,-0.00039898604,-4.3697655e-06,-1.8916315,-4.663151,-0.43460974,0.00039901
0.45454544,0.08080808,-0.00039649382,-1.3511628e-05,-2.677212,-4.737011,-1.9101418,0.00039672398
0.45454544,0.121212125,-0.00040400773,-2.2003427e-05,-3.5019243,-4.827565,-3.339353,0.0004046065
0.45454544,0.16161616,-0.00042087212,-2.9817224e-05,-4.3712454,-4.9379587,-4.7179317,0.00042192702
0.45454544,0.2020202,-0.00044666603,-3.7027523e-05,-5.290061,-5.071315,-6.0413237,0.00044819815
0.45454544,0.24242425,-0.00048101693,-4.3585896e-05,-6.2617545,-5.230587,-7.305589,0.0004829876
0.45454544,0.28282827,-0.0005232133,-4.9542636e-05,-7.289421,-5.4191284,-8.507017,0.00052555365
0.45454544,0.32323232,-0.000572782,-5.484745e-05,-8.374201,-5.6400995,-9.642292,0.000575402
0.45454544,0.36363637,-0.0006291121,-5.948916e-05,-9.516117,-5.8960266,-10.708685,0.0006319185
0.45454544,0.4040404,-0.0006916635,-6.370619e-05,-10.71502,-6.190178,-11.703858,0.00069459114
0.45454544,0.44444445,-0.00075976923,-6.7371875e-05,-11.967659,-6.5247526,-12.625685,0.00076275045
0.45454544,0.4848485,-0.0008329563,-7.05868e-05,-13.270996,-6.9019327,-13.473149,0.00083594176
0.45454544,0.5252525,-0.0009105839,-7.3328614e-05,-14.621365,-7.3241234,-14.245466,0.0009135317
0.45454544,0.56565654,-0.0009919815,-7.583946e-05,-16.011072,-7.79168,-14.942792,0.0009948763
0.45454544,0.6060606,-0.0010766871,-7.792376e-05,-17.434097,-8.305893,-15.5657,0.0010795032
0.45454544,0.64646465,-0.0011640415,-7.987209e-05,-18.88184,-8.866316,-16.11558,0.0011667785
0.45454544,0.68686867,-0.0012536049,-8.1751496e-05,-20.344856,-9.471615,-16.59446,0.0012562677
0.45454544,0.72727275,-0.0013448969,-8.3658844e-05,-21.81263,-10.120971,-17.00502,0.0013474963
0.45454544,0.7676768,-0.0014371686,-8.559972e-05,-23.273958,-10.810917,-17.350824,0.0014397156
0.45454544,0.8080808,-0.0015302189,-8.780323e-05,-24.716711,-11.53776,-17.635845,0.0015327359
0.45454544,0.8484849,-0.0016234554,-9.0288e-05,-26.127825,-12.296513,-17.865177,0.0016259642
0.45454544,0.8888889,-0.0017166361,-9.3208626e-05,-27.494278,-13.081091,-18.043943,0.0017191648
0.45454544,0.9292929,-0.0018092804,-9.666756e-05,-28.80299,-13.884674,-18.17813,0.001811861
0.45454544,0.969697,-0.0019010454,-0.000100819394,-30.040703,-14.699909,-18.273922,0.0019037169
0.45454544,1.010101,-0.0019916855,-0.00010562688,-31.19363,-15.5169,-18.33822,0.0019944846
0.45454544,1.050505,-0.0020808317,-0.000111389905,-32.24943,-16.326475,-18.378016,0.002083811
0.45454544,1.0909091,-0.0021683946,-0.00011788681,-33.19602,-17.11777,-18.400778,0.0021715967
0.45454544,1.1313131,-0.0022540614,-0.00012555346,-34.021782,-17.880087,-18.4136,0.0022575555
0.45454544,1.1717172,-0.002337832,-0.00013409555,-34.718056,-18.60173,-18.423697,0.0023416746
0.45454544,1.2121212,-0.002419319,-0.00014377385,-35.275604,-19.27143,-18.438215,0.0024235873
0.45454544,1.2525252,-0.002498608,-0.0001544822,-35.687492,-19.876802,-18.464146,0.002503379
0.45454544,1.2929293,-0.0025756322,-0.00016625598,-35.94897,-20.406393,-18.507982,0.0025809924
0.45454544,1.3333334,-0.0026501343,-0.0001789853,-36.057102,-20.849049,-18.575676,0.0026561716
0.45454544,1.3737373,-0.002722159,-0.00019266084,-36.01091,-21.194286,-18.672445,0.0027289684
0.45454544,1.4141414,-0.002791617,-0.00020721182,-35.81195,-21.432013,-18.803242,0.0027992968
0.45454544,1.4545455,-0.0028585307,-0.00022250228,-35.464283,-21.553543,-18.971788,0.0028671771
0.45454544,1.4949495,-0.0029227734,-0.00023833476,-34.97363,-21.55074,-19.181044,0.0029324747
0.45454544,1.5353535,-0.002984263,-0.00025460124,-34.34816,-21.417397,-19.433325,0.0029951038
0.45454544,1.5757576,-0.0030429699,-0.00027104095,-33.598835,-21.149107,-19.729654,0.003055017
0.45454544,1.6161616,-0.00309873,-0.000287598,-32.738346,-20.741982,-20.070095,0.0031120474
0.45454544,1.6565657,-0.003151454,-0.0003038682,-31.782177,-20.195292,-20.45384,0.0031660697
0.45454544,1.6969697,-0.0032010116,-0.00031973608,-30.744373,-19.507698,-20.879412,0.0032169404
0.45454544,1.7373737,-0.0032471754,-0.0003348291,-29.645094,-18.682848,-21.34357,0.0032643925
0.45454544,1.7777778,-0.0032897592,-0.0003489703,-28.501814,-17.72328,-21.842825,0.0033082163
0.45454544,1.8181819,-0.0033285767,-0.00036170334,-27.334816,-16.634579,-22.372835,0.0033481715
0.45454544,1.8585858,-0.0033632405,-0.00037297793,-26.163702,-15.42404,-22.928253,0.0033838586
0.45454544,1.8989899,-0.0033935048,-0.0003823284,-25.008875,-14.099775,-23.503077,0.0034149743
0.45454544,1.939394,-0.0034189634,-0.00038943626,-23.890827,-12.672345,-24.090963,0.0034410714
0.45454544,1.979798,-0.0034391955,-0.00039414316,-22.828444,-11.152534,-24.684805,0.0034617067
0.45454544,2.020202,-0.0034538284,-0.00039605983,-21.839792,-9.552557,-25.277515,0.0034764628
0.45454544,2.060606,-0.0034624524,-0.00039499253,-20.941765,-7.8853164,-25.861681,0.00348491
0.45454544,2.10101,-0.0034644008,-0.0003906712,-20.149271,-6.1648693,-26.42973,0.0034863586
0.45454544,2.1414142,-0.003459271,-0.0003828369,-19.475914,-4.4052496,-26.974155,0.0034803909
0.45454544,2.1818182,-0.0034465343,-0.00037126988,-18.93215,-2.6208386,-27.4878,0.0034664737
0.45454544,2.2222223,-0.003425613,-0.00035578758,-18.526833,-0.8263025,-27.963139,0.0034440397
0.45454544,2.2626262,-0.0033958927,-0.00033636205,-18.26595,0.96401954,-28.394014,0.0034125103
0.45454544,2.3030303,-0.0033568554,-0.0003126692,-18.15255,2.7361424,-28.773872,0.0033713854
0.45454544,2.3434343,-0.003307838,-0.00028470717,-18.186657,4.4770446,-29.096878,0.003320068
0.45454544,2.3838384,-0.0032484196,-0.0002525039,-18.366947,6.1729746,-29.358215,0.0032582185
0.45454544,2.4242425,-0.0031777918,-0.00021590665,-18.688633,7.8127284,-29.552864,0.0031851179
0.45454544,2.4646466,-0.003095653,-0.000174921,-19.1451,9.383963,-29.677183,0.003100591
0.45454544,2.5050504,-0.0030012801,-0.00012968108,-19.726282,10.877029,-29.727654,0.0030040806
0.45454544,2.5454545,-0.0028943568,-8.023903e-05,-20.421463,12.282169,-29.701899,0.0028954688
0.45454544,2.5858586,-0.0027741604,-2.6606023e-05,-21.216572,13.591802,-29.597738,0.002774288
0.45454544,2.6262627,-0.0026404075,3.090501e-05,-22.097464,14.797732,-29.414036,0.0026405884
0.45454544,2.6666667,-0.0024926811,9.230897e-05,-23.048182,15.894077,-29.150043,0.0024943897
0.45454544,2.7070708,-0.002330538,0.00015719235,-24.050732,16.87632,-28.805685,0.0023358332
0.45454544,2.7474747,-0.002153594,0.00022542104,-25.087757,17.73957,-28.381086,0.0021653597
0.45454544,2.7878788,-0.0019616373,0.00029684417,-26.141405,18.481373,-27.877237,0.00198397
0.45454544,2.8282828,-0.0017544106,0.00037093274,-27.19218,19.099277,-27.295425,0.0017931948
0.45454544,2.868687,-0.0015315972,0.00044746697,-28.222692,19.591885,-26.637587,0.0015956243
0.45454544,2.909091,-0.0012930818,0.00052610785,-29.21435,19.959429,-25.905527,0.0013960121
0.45454544,2.9494948,-0.0010387041,0.0006065052,-30.14884,20.202362,-25.101606,0.0012028111
0.45454544,2.989899,-0.0007683225,0.0006883666,-31.010462,20.321815,-24.228598,0.0010315852
0.45454544,3.030303,-0.00048193708,0.00077120215,-31.781736,20.32009,-23.288979,0.00090940425
0.45454544,3.070707,-0.00017956272,0.0008546384,-32.44896,20.19941,-22.286077,0.0008732981
0.45454544,3.1111112,0.00013898686,0.00093819015,-32.99633,19.96403,-21.222898,0.0009484293
0.45454544,3.1515152,0.00047351792,0.0010217065,-33.41218,19.616806,-20.10262,0.0011261009
0.45454544,3.191919,0.0008239262,0.0011045188,-33.6834,19.163313,-18.928627,0.0013779753
0.45454544,3.2323232,0.0011903681,0.0011862786,-33.799522,18.608059,-17.704487,0.0016805455
0.45454544,3.2727273,0.0015725158,0.0012666145,-33.751152,17.956556,-16.4334,0.0020191874
0.45454544,3.3131313,0.0019702874,0.0013450757,-33.52912,17.214828,-15.118977,0.0023856366
0.45454544,3.3535354,0.0023835152,0.0014213016,-33.12661,16.38895,-13.764611,0.0027751112
0.45454544,3.3939395,0.0028120168,0.0014948845,-32.536743,15.485792,-12.373785,0.0031846692
0.45454544,3.4343433,0.0032557286,0.0015654406,-31.753521,14.512459,-10.950291,0.00361253
0.45454544,3.4747474,0.0037143268,0.0016326159,-30.773209,13.475578,-9.497115,0.004057297
0.45454544,3.5151515,0.0041876175,0.0016960688,-29.590727,12.383506,-8.01814,0.0045180516
0.45454544,3.5555556,0.004675366,0.001755381,-28.204859,11.242778,-6.5164137,0.0049940376
0.45454544,3.5959597,0.0051773973,0.001810316,-26.612072,10.062065,-4.9957004,0.0054847687
0.45454544,3.6363637,0.0056933984,0.0018605329,-24.810778,8.848795,-3.4590557,0.0059896884
0.45454544,3.6767676,0.006223198,0.0019057393,-22.800713,7.6111217,-1.9098543,0.006508459
0.45454544,3.7171717,0.006766483,0.0019457089,-20.580427,6.3570633,-0.35141668,0.007040673
0.45454544,3.7575758,0.0073230825,0.0019800998,-18.150555,5.094431,1.2133772,0.0075860615
0.45454544,3.7979798,0.007892642,0.0020086775,-15.510829,3.8315756,2.7808897,0.008144236
0.45454544,3.838384,0.008475002,0.0020313403,-12.662208,2.5759845,4.348655,0.008715045
0.45454544,3.878788,0.009069812,0.002047889,-9.606312,1.3354288,5.913454,0.0092981355
0.45454544,3.9191918,0.0096768625,0.0020580487,-6.343617,0.11781742,7.4724665,0.009893293
0.45454544,3.959596,0.010295909,0.0020617228,-2.8762937,-1.0698297,9.023065,0.010500307
0.45454544,4.0,0.010926764,0.0020588124,0.79491484,-2.2194118,10.56238,0.011119032
0.5050505,0.04040404,-0.00039909407,-1.6793609e-05,-2.2520642,-4.9019165,-0.5859891,0.00039944725
0.5050505,0.08080808,-0.0003988631,-2.6242808e-05,-3.0534036,-5.0505533,-2.0774333,0.00039972548
0.5050505,0.121212125,-0.00040868297,-3.5170466e-05,-3.880335,-5.2107253,-3.5296946,0.00041019352
0.5050505,0.16161616,-0.00042804703,-4.358962e-05,-4.738236,-5.3848457,-4.938008,0.00043026076
0.5050505,0.2020202,-0.00045649335,-5.1563606e-05,-5.6325293,-5.57507,-6.2978826,0.00045939634
0.5050505,0.24242425,-0.0004933998,-5.914457e-05,-6.5676537,-5.7848806,-7.604887,0.000496932
0.5050505,0.28282827,-0.00053842366,-6.6217035e-05,-7.546504,-6.016194,-8.855271,0.0005424802
0.5050505,0.32323232,-0.0005909391,-7.271208e-05,-8.571529,-6.272041,-10.045231,0.0005953957
0.5050505,0.36363637,-0.0006502345,-7.889606e-05,-9.644562,-6.55583,-11.171318,0.0006550034
0.5050505,0.4040404,-0.00071599707,-8.4623694e-05,-10.765013,-6.8694906,-12.231215,0.0007209806
0.5050505,0.44444445,-0.00078738853,-9.000115e-05,-11.932765,-7.2164717,-13.221991,0.0007925155
0.5050505,0.4848485,-0.0008638948,-9.498e-05,-13.145817,-7.5994477,-14.142157,0.0008691004
0.5050505,0.5252525,-0.0009449236,-9.966828e-05,-14.399819,-8.019944,-14.990615,0.00095016544
0.5050505,0.56565654,-0.0010298677,-0.00010405108,-15.692158,-8.480713,-15.766388,0.0010351107
0.5050505,0.6060606,-0.00111809,-0.00010827556,-17.016294,-8.982942,-16.46946,0.0011233204
0.5050505,0.64646465,-0.0012090318,-0.000112362206,-18.366125,-9.528097,-17.100714,0.0012142418
0.5050505,0.68686867,-0.0013021566,-0.000116396695,-19.733526,-10.115829,-17.661396,0.0013073485
0.5050505,0.72727275,-0.001396887,-0.00012052059,-21.110723,-10.746661,-18.153309,0.0014020766
0.5050505,0.7676768,-0.0014927238,-0.00012475252,-22.486492,-11.418224,-18.579697,0.0014979278
0.5050505,0.8080808,-0.0015891418,-0.00012928434,-23.852068,-12.129536,-18.943333,0.0015943921
0.5050505,0.8484849,-0.0016856901,-0.00013418123,-25.19522,-12.87694,-19.248552,0.0016910221
0.5050505,0.8888889,-0.0017819069,-0.00013956055,-26.504623,-13.656273,-19.500084,0.0017873638
0.5050505,0.9292929,-0.0018773936,-0.00014548376,-27.767965,-14.462426,-19.703121,0.0018830221
0.5050505,0.969697,-0.0019717962,-0.00015212595,-28.972618,-15.288989,-19.863565,0.0019776558
0.5050505,1.010101,-0.002064824,-0.00015960261,-30.106585,-16.129257,-19.987606,0.0020709834
0.5050505,1.050505,-0.002156172,-0.00016795471,-31.157463,-16.97439,-20.081993,0.0021627035
0.5050505,1.0909091,-0.0022455193,-0.00017737783,-32.113605,-17.81617,-20.153427,0.0022525142
0.5050505,1.1313131,-0.0023327991,-0.0001878459,-32.96358,-18.644007,-20.209112,0.00234035
0.5050505,1.1717172,-0.0024176762,-0.00019950606,-33.697796,-19.447943,-20.256197,0.0024258937
0.5050505,1.2121212,-0.0025000498,-0.0002124086,-34.306923,-20.216818,-20.302034,0.0025090568
0.5050505,1.2525252,-0.0025799088,-0.00022654049,-34.783463,-20.939453,-20.353292,0.002589836
0.5050505,1.2929293,-0.0026569627,-0.00024201535,-35.121204,-21.604769,-20.416754,0.0026679623
0.5050505,1.3333334,-0.0027312376,-0.00025868416,-35.315643,-22.200693,-20.498959,0.0027434607
0.5050505,1.3737373,-0.0028027222,-0.00027660653,-35.364426,-22.716843,-20.605597,0.0028163386
0.5050505,1.4141414,-0.0028713308,-0.00029573962,-35.268353,-23.14306,-20.741737,0.0028865207
0.5050505,1.4545455,-0.0029370524,-0.0003159102,-35.02804,-23.468414,-20.912144,0.0029539932
0.5050505,1.4949495,-0.0029997937,-0.0003371276,-34.64847,-23.685009,-21.12027,0.0030186782
0.5050505,1.5353535,-0.003059499,-0.00035919994,-34.136024,-23.784687,-21.368969,0.0030805126
0.5050505,1.5757576,-0.0031163245,-0.00038196892,-33.499054,-23.760685,-21.660358,0.0031396463
0.5050505,1.6161616,-0.0031699836,-0.00040527433,-32.749126,-23.607965,-21.995068,0.0031957852
0.5050505,1.6565657,-0.0032204874,-0.00042882562,-31.898376,-23.322859,-22.373167,0.0032489123
0.5050505,1.6969697,-0.0032677501,-0.00045250542,-30.961521,-22.903086,-22.793688,0.003298932
0.5050505,1.7373737,-0.0033114739,-0.00047595054,-29.954897,-22.348166,-23.254341,0.0033455028
0.5050505,1.7777778,-0.003351923,-0.0004990157,-28.897896,-21.660513,-23.75218,0.003388865
0.5050505,1.8181819,-0.0033884458,-0.00052138045,-27.80714,-20.841658,-24.283161,0.0034283237
0.5050505,1.8585858,-0.0034210458,-0.00054267794,-26.703451,-19.897163,-24.842745,0.0034638206
0.5050505,1.8989899,-0.0034494698,-0.00056268834,-25.606646,-18.833118,-25.424898,0.0034950622
0.5050505,1.939394,-0.0034731962,-0.00058111735,-24.536495,-17.657328,-26.023453,0.0035214755
0.5050505,1.979798,-0.0034921132,-0.00059761293,-23.512802,-16.378666,-26.631958,0.0035428796
0.5050505,2.020202,-0.0035057701,-0.0006118845,-22.55461,-15.00808,-27.242529,0.0035587675
0.5050505,2.060606,-0.0035135746,-0.0006237067,-21.679632,-13.55646,-27.847937,0.0035685033
0.5050505,2.10101,-0.0035154037,-0.00063274615,-20.9044,-12.03615,-28.440317,0.0035718945
0.5050505,2.1414142,-0.003510356,-0.0006386731,-20.243275,-10.460431,-29.011292,0.003567983
0.5050505,2.1818182,-0.0034982376,-0.000641359,-19.708792,-8.842421,-29.55363,0.0035565444
0.5050505,2.2222223,-0.003478326,-0.0006405916,-19.311409,-7.1958194,-30.059141,0.0035368218
0.5050505,2.2626262,-0.0034500696,-0.0006360337,-19.05879,-5.5345325,-30.52053,0.0035082074
0.5050505,2.3030303,-0.0034129322,-0.0006276071,-18.955917,-3.8723614,-30.930618,0.003470158
0.5050505,2.3434343,-0.0033663213,-0.0006151553,-19.004816,-2.2218566,-31.282995,0.0034220659
0.5050505,2.3838384,-0.0033095554,-0.000598548,-19.20544,-0.59665227,-31.57131,0.003363245
0.5050505,2.4242425,-0.0032421835,-0.0005777329,-19.554716,0.99103826,-31.790138,0.003293255
0.5050505,2.4646466,-0.0031635053,-0.00055255555,-20.046722,2.529747,-31.934664,0.003211399
0.5050505,2.5050504,-0.0030730031,-0.00052318536,-20.672983,4.009048,-32.00062,0.0031172216
0.5050505,2.5454545,-0.0029700398,-0.0004895404,-21.422787,5.418518,-31.984806,0.003010114
0.5050505,2.5858586,-0.0028542057,-0.0004516095,-22.283772,6.749561,-31.884178,0.002889713
0.5050505,2.6262627,-0.0027248226,-0.0004096646,-23.240612,7.994387,-31.696827,0.0027554461
0.5050505,2.6666667,-0.0025816076,-0.0003636591,-24.2776,9.145867,-31.421509,0.0026070953
0.5050505,2.7070708,-0.002423972,-0.00031386316,-25.376999,10.198071,-31.056923,0.0024442074
0.5050505,2.7474747,-0.0022516362,-0.00026039034,-26.520004,11.14645,-30.603449,0.0022666426
0.5050505,2.7878788,-0.002064038,-0.00020357966,-27.68712,11.987071,-30.061615,0.0020740535
0.5050505,2.8282828,-0.0018611513,-0.00014355965,-28.85932,12.716713,-29.432188,0.0018666799
0.5050505,2.868687,-0.0016423985,-8.069724e-05,-30.015972,13.333901,-28.716793,0.0016443798
0.5050505,2.909091,-0.0014076382,-1.5245751e-05,-31.137743,13.837149,-27.917202,0.0014077207
0.5050505,2.9494948,-0.0011567883,5.2457675e-05,-32.20524,14.226516,-27.035765,0.0011579772
0.5050505,2.989899,-0.000889577,0.00012207031,-33.199978,14.5021,-26.075006,0.00089791336
0.5050505,3.030303,-0.0006058477,0.00019315816,-34.10291,14.665568,-25.037775,0.00063589425
0.5050505,3.070707,-0.00030556694,0.00026548468,-34.8985,14.718475,-23.927343,0.00040478795
0.5050505,3.1111112,1.1198223e-05,0.0003385786,-35.56976,14.663696,-22.747025,0.00033876376
0.5050505,3.1515152,0.00034463406,0.00041194074,-36.101112,14.504526,-21.500645,0.000537092
0.5050505,3.191919,0.00069464,0.00048535503,-36.480335,14.244284,-20.190802,0.0008474044
0.5050505,3.2323232,0.0010610595,0.00055830553,-36.69517,13.8869915,-18.82206,0.0011989798
0.5050505,3.2727273,0.0014439486,0.0006303843,-36.73318,13.438204,-17.398151,0.0015755545
0.5050505,3.3131313,0.0018431954,0.00070118345,-36.585297,12.902263,-15.9225855,0.0019720618
0.5050505,3.3535354,0.0022584684,0.00077035837,-36.243458,12.28471,-14.399282,0.002386238
0.5050505,3.3939395,0.0026898645,0.0008374397,-35.698765,11.5921135,-12.832274,0.0028172107
0.5050505,3.4343433,0.0031370334,0.00090203155,-34.946175,10.830137,-11.225507,0.0032641448
0.5050505,3.4747474,0.00359983,0.00096384063,-33.97992,10.005435,-9.582428,0.003726629
0.5050505,3.5151515,0.0040779673,0.0010223519,-32.796253,9.124846,-7.90745,0.004204167
0.5050505,3.5555556,0.004571382,0.0010773353,-31.391203,8.195216,-6.203887,0.004696614
0.5050505,3.5959597,0.005079739,0.0011284165,-29.762653,7.2240033,-4.4759684,0.0052035633
0.5050505,3.6363637,0.00560287,0.001175194,-27.908363,6.2187524,-2.7271435,0.0057247914
0.5050505,3.6767676,0.0061403513,0.001217396,-25.829077,5.1860003,-0.9610497,0.00625987
0.5050505,3.7171717,0.0066921525,0.0012547597,-23.521862,4.134635,0.81802005,0.0068087685
0.5050505,3.7575758,0.007257838,0.0012870254,-20.98899,3.071425,2.6074598,0.007371068
0.5050505,3.7979798,0.007837217,0.0013138438,-18.22995,2.0044518,4.4029655,0.007946582
0.5050505,3.838384,0.008429971,0.0013350686,-15.246651,0.94074357,6.201523,0.008535034
0.5050505,3.878788,0.009035904,0.0013504401,-12.039621,-0.11133055,7.9999037,0.0091362605
0.5050505,3.9191918,0.009654697,0.0013597934,-8.611247,-1.1447582,9.794383,0.009749985
0.5050505,3.959596,0.010286149,0.0013628416,-4.963295,-2.152061,11.582156,0.010376039
0.5050505,4.0,0.010929789,0.0013595987,-1.0988038,-3.1265013,13.359916,0.0110140275
0.5555555,0.04040404,-0.0003998764,-2.8176233e-05,-2.571635,-5.1344237,-0.8138748,0.00040086784
0.5555555,0.08080808,-0.00040195137,-3.790483e-05,-3.3978732,-5.3773346,-2.3152966,0.00040373468
0.5555555,0.121212125,-0.00041401014,-4.7352165e-05,-4.235617,-5.626927,-3.784134,0.00041670928
0.5555555,0.16161616,-0.0004357323,-5.6564808e-05,-5.091383,-5.885472,-5.2154326,0.00043938847
0.5555555,0.2020202,-0.00046658516,-6.5520406e-05,-5.970494,-6.1545734,-6.6044106,0.00047116308
0.5555555,0.24242425,-0.00050604716,-7.423386e-05,-6.877381,-6.4363313,-7.946673,0.000511463
0.5555555,0.28282827,-0.0005536154,-8.269772e-05,-7.8161545,-6.733137,-9.237875,0.00055975793
0.5555555,0.32323232,-0.00060874596,-9.08263e-05,-8.789535,-7.046969,-10.474088,0.00061548443
0.5555555,0.36363637,-0.0006709732,-9.868108e-05,-9.799583,-7.3803086,-11.651869,0.00067819096
0.5555555,0.4040404,-0.00073950365,-0.00010641292,-10.8486805,-7.7363086,-12.7679,0.0007471207
0.5555555,0.44444445,-0.00081392005,-0.00011384301,-11.935678,-8.117085,-13.819523,0.0008218431
0.5555555,0.4848485,-0.0008935034,-0.00012113899,-13.060834,-8.525763,-14.804341,0.0009016779
0.5555555,0.5252525,-0.0009776726,-0.00012821332,-14.222207,-8.964958,-15.720706,0.0009860438
0.5555555,0.56565654,-0.0010657646,-0.00013517961,-15.416753,-9.437039,-16.567287,0.0010743034
0.5555555,0.6060606,-0.0011571981,-0.00014212914,-16.641232,-9.944392,-17.343616,0.0011658937
0.5555555,0.64646465,-0.0012515113,-0.00014899299,-17.889647,-10.488332,-18.0497,0.001260349
0.5555555,0.68686867,-0.001347892,-0.00015598722,-19.157587,-11.071479,-18.686014,0.0013568879
0.5555555,0.72727275,-0.0014458783,-0.00016302988,-20.43705,-11.693417,-19.254183,0.0014550405
0.5555555,0.7676768,-0.0015448965,-0.00017040037,-21.71997,-12.354829,-19.75601,0.0015542656
0.5555555,0.8080808,-0.001644399,-0.0001780428,-22.998644,-13.055333,-20.1942,0.0016540095
0.5555555,0.8484849,-0.0017439425,-0.00018607639,-24.262506,-13.7932415,-20.57231,0.0017538415
0.5555555,0.8888889,-0.0018430203,-0.00019474328,-25.501772,-14.566033,-20.894024,0.0018532806
0.5555555,0.9292929,-0.001941286,-0.00020393729,-26.7055,-15.370202,-21.164516,0.0019519688
0.5555555,0.969697,-0.0020382218,-0.00021397881,-27.8625,-16.201488,-21.388601,0.002049423
0.5555555,1.010101,-0.002133552,-0.0002249144,-28.961422,-17.054338,-21.57202,0.0021453742
0.5555555,1.050505,-0.002227012,-0.00023678504,-29.990952,-17.922262,-21.721134,0.0022395647
0.5555555,1.0909091,-0.0023181997,-0.00024972856,-30.939932,-18.797836,-21.842342,0.002331612
0.5555555,1.1313131,-0.0024068877,-0.00026396476,-31.797522,-19.67295,-21.942402,0.002421319
0.5555555,1.1717172,-0.0024929754,-0.00027946755,-32.55312,-20.537933,-22.028461,0.002508591
0.5555555,1.2121212,-0.0025762469,-0.00029623695,-33.19826,-21.383085,-22.107458,0.0025932228
0.5555555,1.2525252,-0.002656538,-0.00031458028,-33.723938,-22.198454,-22.186388,0.002675099
0.5555555,1.2929293,-0.0027338117,-0.00033424795,-34.124252,-22.972841,-22.27204,0.0027541693
0.5555555,1.3333334,-0.0028079785,-0.00035547093,-34.3928,-23.695305,-22.371103,0.0028303892
0.5555555,1.3737373,-0.002879005,-0.00037816167,-34.526707,-24.355022,-22.489655,0.0029037348
0.5555555,1.4141414,-0.0029467307,-0.00040230714,-34.52404,-24.94109,-22.633204,0.0029740667
0.5555555,1.4545455,-0.0030113347,-0.00042785332,-34.385124,-25.443151,-22.807127,0.0030415778
0.5555555,1.4949495,-0.0030725934,-0.00045476854,-34.112278,-25.851492,-23.015377,0.0031060658
0.5555555,1.5353535,-0.0031308196,-0.00048287585,-33.709938,-26.15716,-23.261694,0.0031678386
0.5555555,1.5757576,-0.0031855628,-0.0005121343,-33.185287,-26.352015,-23.548397,0.0032264674
0.5555555,1.6161616,-0.0032372065,-0.0005423166,-32.54672,-26.429472,-23.87754,0.0032823184
0.5555555,1.6565657,-0.0032854527,-0.00057327,-31.806122,-26.384031,-24.249397,0.003335092
0.5555555,1.6969697,-0.003330376,-0.00060479157,-30.975939,-26.211796,-24.663853,0.0033848453
0.5555555,1.7373737,-0.0033719577,-0.0006366018,-30.07082,-25.909372,-25.119665,0.0034315246
0.5555555,1.7777778,-0.0034098402,-0.00066848285,-29.107807,-25.476952,-25.614202,0.003474749
0.5555555,1.8181819,-0.0034441315,-0.0007002149,-28.10435,-24.9147,-26.14422,0.00351459
0.5555555,1.8585858,-0.003474526,-0.00073146634,-27.078691,-24.224957,-26.705359,0.0035506864
0.5555555,1.8989899,-0.0035008304,-0.00076205656,-26.050743,-23.412025,-27.29269,0.0035828121
0.5555555,1.939394,-0.003522858,-0.0007914826,-25.04091,-22.481247,-27.90002,0.003610675
0.5555555,1.979798,-0.0035402179,-0.0008195136,-24.067923,-21.439787,-28.520662,0.0036338335
0.5555555,2.020202,-0.003552582,-0.0008458756,-23.15218,-20.296053,-29.147282,0.0036518963
0.5555555,2.060606,-0.0035596117,-0.0008702185,-22.311491,-19.059559,-29.772612,0.0036644393
0.5555555,2.10101,-0.0035608225,-0.00089237094,-21.563652,-17.740967,-30.38811,0.0036709376
0.5555555,2.1414142,-0.0035558864,-0.0009118188,-20.924046,-16.351711,-30.985926,0.003670932
0.5555555,2.1818182,-0.0035440773,-0.00092847086,-20.407349,-14.903902,-31.557201,0.0036636787
0.5555555,2.2222223,-0.0035249814,-0.0009419266,-20.024656,-13.410249,-32.093945,0.00364866
0.5555555,2.2626262,-0.003498152,-0.0009520799,-19.786497,-11.884079,-32.588226,0.0036253997
0.5555555,2.3030303,-0.0034627952,-0.00095858425,-19.699219,-10.337819,-33.031334,0.0035930257
0.5555555,2.3434343,-0.0034185015,-0.00096129626,-19.76726,-8.7850275,-33.416584,0.0035510904
0.5555555,2.3838384,-0.0033644922,-0.000960052,-19.99066,-7.237607,-33.736828,0.0034987866
0.5555555,2.4242425,-0.0033002272,-0.00095470436,-20.36987,-5.7085533,-33.98531,0.0034355437
0.5555555,2.4646466,-0.0032251924,-0.0009452086,-20.899515,-4.2094207,-34.156498,0.003360846
0.5555555,2.5050504,-0.003138531,-0.00093141757,-21.571865,-2.7505426,-34.24499,0.0032738228
0.5555555,2.5454545,-0.0030398443,-0.000913376,-22.378254,-1.3427886,-34.24681,0.0031740998
0.5555555,2.5858586,-0.0029284433,-0.0008910056,-23.306368,0.0043395488,-34.15798,0.0030609919
0.5555555,2.6262627,-0.0028038211,-0.00086434,-24.341234,1.2831407,-33.975533,0.002934024
0.5555555,2.6666667,-0.00266549,-0.00083358213,-25.467728,2.4852889,-33.69771,0.0027927936
0.5555555,2.7070708,-0.002512768,-0.000798719,-26.666883,3.604722,-33.322624,0.002636656
0.5555555,2.7474747,-0.0023454018,-0.00075994805,-27.920242,4.635827,-32.849834,0.0024654474
0.5555555,2.7878788,-0.002162829,-0.00071741454,-29.207123,5.5739655,-32.279354,0.0022787086
0.5555555,2.8282828,-0.0019646622,-0.000671342,-30.506723,6.415729,-31.611391,0.0020761979
0.5555555,2.868687,-0.0017505623,-0.0006219633,-31.797354,7.158232,-30.847357,0.0018577693
0.5555555,2.909091,-0.0015202053,-0.0005695354,-33.058304,7.7997437,-29.988901,0.0016233899
0.5555555,2.9494948,-0.0012734346,-0.00051438063,-34.26834,8.338869,-29.038054,0.0013733984
0.5555555,2.989899,-0.0010099262,-0.00045677833,-35.406643,8.775642,-27.997282,0.0011084211
0.5555555,3.030303,-0.0007295497,-0.0003970731,-36.453,9.110573,-26.869728,0.00083060807
0.5555555,3.070707,-0.00043211877,-0.00033563934,-37.38843,9.344626,-25.658484,0.00054715667
0.5555555,3.1111112,-0.00011759624,-0.0002728291,-38.194702,9.479943,-24.366848,0.00029709356
0.5555555,3.1515152,0.0002140738,-0.00020905398,-38.855595,9.51849,-22.998695,0.0002992176
0.5555555,3.191919,0.0005628839,-0.00014463812,-39.355225,9.463098,-21.557816,0.00058116997
0.5555555,3.2323232,0.0009289235,-8.010119e-05,-39.679466,9.31738,-20.048008,0.00093237066
0.5555555,3.2727273,0.0013119541,-1.5733764e-05,-39.815353,9.085345,-18.473812,0.0013120484
0.5555555,3.3131313,0.0017119609,4.7966838e-05,-39.75174,8.770948,-16.83912,0.0017126327
0.5555555,3.3535354,0.0021289997,0.000110602006,-39.477627,8.379463,-15.148119,0.0021318707
0.5555555,3.3939395,0.0025626607,0.00017185882,-38.986298,7.915566,-13.405221,0.0025684168
0.5555555,3.4343433,0.0030128993,0.000231212,-38.269493,7.38453,-11.614562,0.003021758
0.5555555,3.4747474,0.0034795515,0.00028835237,-37.320698,6.79275,-9.780466,0.003491479
0.5555555,3.5151515,0.003962405,0.00034281984,-36.136383,6.1455035,-7.9071226,0.0039772075
0.5555555,3.5555556,0.004461203,0.00039423443,-34.711803,5.4494305,-5.9990783,0.0044785882
0.5555555,3.5959597,0.004975807,0.00044232048,-33.043552,4.711623,-4.060291,0.004995428
0.5555555,3.6363637,0.005505804,0.0004866775,-31.13207,3.937575,-2.094917,0.0055272714
0.5555555,3.6767676,0.0060510263,0.00052693114,-28.974623,3.1352296,-0.10736895,0.006073926
0.5555555,3.7171717,0.006611187,0.0005627759,-26.571428,2.3111553,1.8985602,0.006635097
0.5555555,3.7575758,0.0071860664,0.0005939733,-23.923077,1.4725133,3.9187977,0.0072105723
0.5555555,3.7979798,0.0077753626,0.00062019937,-21.02994,0.6268705,5.949593,0.0078000585
0.5555555,3.838384,0.008378845,0.0006411709,-17.893711,-0.21866155,7.986799,0.008403341
0.5555555,3.878788,0.008996058,0.00065658055,-14.517434,-1.0574307,10.026605,0.009019987
0.5555555,3.9191918,0.009626891,0.0006664023,-10.901326,-1.8811691,12.065879,0.00964993
0.5555555,3.959596,0.010270942,0.00067027286,-7.051108,-2.684022,14.100456,0.01029279
0.5555555,4.0,0.010927964,0.00066800416,-2.9673433,-3.4580636,16.127195,0.010948362
0.6060606,0.04040404,-0.00040134043,-3.9013103e-05,-2.8342707,-5.3528605,-1.1109353,0.00040323214
0.6060606,0.08080808,-0.00040546805,-4.914403e-05,-3.6921642,-5.7058835,-2.6170504,0.0004084354
0.6060606,0.121212125,-0.00041979924,-5.9245154e-05,-4.548888,-6.0623055,-4.096462,0.00042395917
0.6060606,0.16161616,-0.0004437454,-6.924942e-05,-5.4103627,-6.423004,-5.544097,0.0004491163
0.6060606,0.2020202,-0.00047684088,-7.938221e-05,-6.2821264,-6.7894783,-6.9552226,0.0004834033
0.6060606,0.24242425,-0.0005185902,-8.93753e-05,-7.168862,-7.1626606,-8.325051,0.0005262355
0.6060606,0.28282827,-0.0005685948,-9.936653e-05,-8.07496,-7.544234,-9.649317,0.000577212
0.6060606,0.32323232,-0.0006262176,-0.000109368935,-9.003888,-7.9356694,-10.923705,0.00063569646
0.6060606,0.36363637,-0.0006908551,-0.0001193881,-9.959308,-8.3396225,-12.144633,0.0007010951
0.6060606,0.4040404,-0.00076211616,-0.00012931228,-10.942362,-8.757771,-13.308546,0.0007730089
0.6060606,0.44444445,-0.00083918497,-0.00013932772,-11.954224,-9.192485,-14.412326,0.0008506724
0.6060606,0.4848485,-0.0009215288,-0.00014927052,-12.996459,-9.647062,-15.453195,0.00093354005
0.6060606,0.5252525,-0.0010084957,-0.00015936606,-14.067794,-10.123614,-16.429064,0.0010210099
0.6060606,0.56565654,-0.0010994747,-0.00016938895,-15.166874,-10.62486,-17.338448,0.0011124465
0.6060606,0.6060606,-0.001193855,-0.00017955527,-16.291815,-11.153921,-18.179945,0.001207282
0.6060606,0.64646465,-0.001291059,-0.00018985197,-17.438765,-11.712742,-18.953302,0.0013049432
0.6060606,0.68686867,-0.0013904199,-0.00020035729,-18.603786,-12.304024,-19.658504,0.0014047812
0.6060606,0.72727275,-0.0014913268,-0.00021113828,-19.781775,-12.929247,-20.296194,0.0015061989
0.6060606,0.7676768,-0.0015932396,-0.00022218749,-20.965965,-13.58972,-20.867926,0.0016086578
0.6060606,0.8080808,-0.0016957,-0.00023368374,-22.150066,-14.286444,-21.375698,0.0017117262
0.6060606,0.8484849,-0.0017979927,-0.00024570152,-23.325663,-15.019101,-21.822206,0.001814703
0.6060606,0.8888889,-0.0018997677,-0.0002583731,-24.484396,-15.786914,-22.210932,0.0019172569
0.6060606,0.9292929,-0.0020005256,-0.00027172826,-25.616732,-16.58795,-22.545744,0.0020188955
0.6060606,0.969697,-0.002099838,-0.00028592162,-26.71298,-17.419619,-22.83146,0.0021192147
0.6060606,1.010101,-0.0021973103,-0.0003010705,-27.762857,-18.278023,-23.073048,0.0022178404
0.6060606,1.050505,-0.002292741,-0.0003172569,-28.75622,-19.158632,-23.276464,0.0023145871
0.6060606,1.0909091,-0.0023855865,-0.00033457018,-29.682142,-20.055452,-23.447544,0.0024089334
0.6060606,1.1313131,-0.002475746,-0.00035320967,-30.531267,-20.961815,-23.592628,0.0025008149
0.6060606,1.1717172,-0.0025629662,-0.00037325546,-31.293158,-21.870247,-23.718908,0.002590003
0.6060606,1.2121212,-0.002647128,-0.00039476715,-31.958525,-22.77173,-23.83283,0.002676402
0.6060606,1.2525252,-0.0027279556,-0.00041775033,-32.51904,-23.657106,-23.941273,0.0027597568
0.6060606,1.2929293,-0.002805531,-0.000442395,-32.967278,-24.51666,-24.051413,0.0028401967
0.6060606,1.3333334,-0.0028795712,-0.00046871044,-33.297035,-25.339964,-24.169762,0.002917468
0.6060606,1.3737373,-0.0029500872,-0.00049668923,-33.504154,-26.116508,-24.302652,0.0029916074
0.6060606,1.4141414,-0.0030171946,-0.0005263537,-33.58486,-26.835388,-24.456072,0.003062762
0.6060606,1.4545455,-0.0030806437,-0.00055762194,-33.538532,-27.486383,-24.635487,0.0031307042
0.6060606,1.4949495,-0.0031407475,-0.00059059076,-33.366203,-28.059378,-24.845734,0.003195793
0.6060606,1.5353535,-0.0031971633,-0.0006250758,-33.07017,-28.544434,-25.090908,0.0032576944
0.6060606,1.5757576,-0.0032502487,-0.00066100433,-32.65506,-28.932106,-25.374372,0.0033167822
0.6060606,1.6161616,-0.003299784,-0.0006982796,-32.128456,-29.214928,-25.698345,0.0033728576
0.6060606,1.6565657,-0.0033458732,-0.0007366743,-31.499807,-29.38602,-26.064192,0.0034260117
0.6060606,1.6969697,-0.0033885762,-0.00077614,-30.779348,-29.438755,-26.472635,0.003476326
0.6060606,1.7373737,-0.003427621,-0.00081626326,-29.981245,-29.369308,-26.922806,0.0035234743
0.6060606,1.7777778,-0.0034631826,-0.00085694715,-29.119907,-29.174591,-27.413061,0.0035676314
0.6060606,1.8181819,-0.0034951344,-0.00089799054,-28.211626,-28.853472,-27.940765,0.0036086496
0.6060606,1.8585858,-0.003523279,-0.0009390805,-27.27385,-28.405584,-28.502241,0.0036462813
0.6060606,1.8989899,-0.0035474822,-0.0009798277,-26.326029,-27.83302,-29.092873,0.0036803114
0.6060606,1.939394,-0.0035675801,-0.0010200758,-25.38741,-27.139223,-29.706984,0.0037105503
0.6060606,1.979798,-0.0035832785,-0.0010594353,-24.477047,-26.32889,-30.338236,0.0037366145
0.6060606,2.020202,-0.0035942532,-0.001097627,-23.614466,-25.408321,-30.97963,0.0037581166
0.6060606,2.060606,-0.00360021,-0.0011343118,-22.818575,-24.384912,-31.62361,0.0037746755
0.6060606,2.10101,-0.0036008917,-0.0011691805,-22.108334,-23.268028,-32.26183,0.0037859483
0.6060606,2.1414142,-0.0035956316,-0.0012018122,-21.500298,-22.06724,-32.88596,0.0037911632
0.6060606,2.1818182,-0.0035841055,-0.0012320355,-21.009598,-20.793041,-33.486977,0.0037899504
0.6060606,2.2222223,-0.0035657808,-0.0012594834,-20.649761,-19.457172,-34.056324,0.0037816784
0.6060606,2.2626262,-0.0035401061,-0.0012839288,-20.43237,-18.071722,-34.58517,0.0037657435
0.6060606,2.3030303,-0.003506489,-0.001305135,-20.365833,-16.64873,-35.064877,0.0037415028
0.6060606,2.3434343,-0.003464356,-0.0013227202,-20.456133,-15.200238,-35.487057,0.0037082816
0.6060606,2.3838384,-0.0034130886,-0.0013365354,-20.706553,-13.738649,-35.843845,0.0036654468
0.6060606,2.4242425,-0.0033520423,-0.0013464838,-21.117237,-12.276222,-36.12809,0.0036123686
0.6060606,2.4646466,-0.0032804795,-0.001352327,-21.685375,-10.824071,-36.33274,0.003548286
0.6060606,2.5050504,-0.003197901,-0.0013539344,-22.40588,-9.393878,-36.45156,0.003472709
0.6060606,2.5454545,-0.00310364,-0.001351295,-23.269567,-7.9956408,-36.479553,0.0033850523
0.6060606,2.5858586,-0.0029969662,-0.0013442431,-24.265669,-6.639253,-36.41162,0.0032846304
0.6060606,2.6262627,-0.0028773732,-0.0013328306,-25.38039,-5.3332996,-36.244114,0.0031710747
0.6060606,2.6666667,-0.0027441904,-0.0013170801,-26.5974,-4.0860257,-35.974224,0.0030438923
0.6060606,2.7070708,-0.0025968738,-0.0012970679,-27.899406,-2.904362,-35.599304,0.0029027811
0.6060606,2.7474747,-0.0024348646,-0.0012727324,-29.266382,-1.7945879,-35.118137,0.0027474377
0.6060606,2.7878788,-0.0022576898,-0.0012443569,-30.677322,-0.76165175,-34.52961,0.0025779037
0.6060606,2.8282828,-0.0020649098,-0.0012120996,-32.110962,0.18955491,-33.83437,0.0023943763
0.6060606,2.868687,-0.0018560253,-0.0011760592,-33.54307,1.0566118,-33.032738,0.0021972586
0.6060606,2.909091,-0.001630757,-0.0011364873,-34.951965,1.8363856,-32.125893,0.0019877052
0.6060606,2.9494948,-0.0013887174,-0.0010937359,-36.313618,2.5273418,-31.116169,0.0017677088
0.6060606,2.989899,-0.0011296086,-0.0010478962,-37.606766,3.1282632,-30.005196,0.0015408122
0.6060606,3.030303,-0.00085323676,-0.0009994954,-38.807873,3.6392167,-28.79656,0.0013141553
0.6060606,3.070707,-0.0005592853,-0.00094866566,-39.895824,4.060611,-27.49294,0.0011012568
0.6060606,3.1111112,-0.0002478175,-0.0008958541,-40.851456,4.392809,-26.098045,0.0009294988
0.6060606,3.1515152,8.1412494e-05,-0.000841422,-41.653873,4.638495,-24.615717,0.0008453514
0.6060606,3.191919,0.0004284568,-0.0007857233,-42.286995,4.7987723,-23.05017,0.00089495047
0.6060606,3.2323232,0.0007933192,-0.0007291585,-42.73353,4.87681,-21.405169,0.0010775098
0.6060606,3.2727273,0.0011759289,-0.0006721616,-42.97927,4.875568,-19.685577,0.0013544777
0.6060606,3.3131313,0.001576338,-0.00061514415,-43.01015,4.7987537,-17.895782,0.0016921122
0.6060606,3.3535354,0.00199439,-0.0005584266,-42.81478,4.6503243,-16.04032,0.0020710945
0.6060606,3.3939395,0.0024299435,-0.00050254725,-42.384834,4.433686,-14.123814,0.0024813665
0.6060606,3.4343433,0.0028828867,-0.00044780225,-41.709915,4.1540875,-12.1510515,0.0029174583
0.6060606,3.4747474,0.003352996,-0.00039463304,-40.78359,3.8164942,-10.126623,0.0033761396
0.6060606,3.5151515,0.0038402416,-0.00034351274,-39.599464,3.4261715,-8.055251,0.0038555746
0.6060606,3.5555556,0.004344158,-0.0002947785,-38.15512,2.9880545,-5.941485,0.0043541477
0.6060606,3.5959597,0.0048645996,-0.00024883077,-36.445797,2.5083852,-3.7903504,0.0048709596
0.6060606,3.6363637,0.0054014213,-0.00020607375,-34.46978,1.9929451,-1.6061016,0.005405351
0.6060606,3.6767676,0.0059542917,-0.00016676262,-32.227192,1.447554,0.6065597,0.0059566265
0.6060606,3.7171717,0.0065229423,-0.00013135001,-29.715206,0.8795037,2.8433137,0.006524265
0.6060606,3.7575758,0.0071070977,-0.00010010786,-26.93743,0.29453188,5.0992813,0.0071078027
0.6060606,3.7979798,0.0077063926,-7.340312e-05,-23.893684,-0.30062687,7.370702,0.0077067423
0.6060606,3.838384,0.008320656,-5.1505864e-05,-20.586332,-0.89910686,9.652627,0.008320815
0.6060606,3.878788,0.008949492,-3.462471e-05,-17.01815,-1.4944227,11.9416065,0.008949559
0.6060606,3.9191918,0.009592619,-2.3111701e-05,-13.191248,-2.0789793,14.23273,0.009592647
0.6060606,3.959596,0.010249671,-1.7220154e-05,-9.110715,-2.6473956,16.522709,0.0102496855
0.6060606,4.0,0.010920469,-1.7030165e-05,-4.7791357,-3.1918054,18.80724,0.010920482
0.65656567,0.04040404,-0.00040313974,-4.9987808e-05,-3.0276563,-5.552995,-1.4686599,0.00040622705
0.65656567,0.08080808,-0.00040950254,-6.0582533e-05,-3.923061,-6.029079,-2.974493,0.0004139596
0.65656567,0.121212125,-0.00042590126,-7.136352e-05,-4.804322,-6.5059013,-4.4587913,0.00043183868
0.65656567,0.16161616,-0.0004519187,-8.2399696e-05,-5.6780276,-6.9836164,-5.916608,0.00045936936
0.65656567,0.2020202,-0.00048714504,-9.362027e-05,-6.5490065,-7.462204,-7.343165,0.00049605954
0.65656567,0.24242425,-0.00053105876,-0.0001051873,-7.4226747,-7.9430194,-8.733476,0.00054137583
0.65656567,0.28282827,-0.0005832054,-0.000117037445,-8.303607,-8.426349,-10.08308,0.000594833
0.65656567,0.32323232,-0.0006430447,-0.00012907013,-9.195098,-8.912822,-11.387729,0.0006558701
0.65656567,0.36363637,-0.0007099658,-0.00014137849,-10.101959,-9.404853,-12.643319,0.00072390557
0.65656567,0.4040404,-0.00078354403,-0.00015395135,-11.025691,-9.90341,-13.846469,0.00079852506
0.65656567,0.44444445,-0.0008630045,-0.00016681664,-11.968639,-10.410477,-14.993454,0.0008789793
0.65656567,0.4848485,-0.0009477101,-0.00017985702,-12.933097,-10.9288645,-16.08156,0.00096462585
0.65656567,0.5252525,-0.001037214,-0.00019319355,-13.918548,-11.46035,-17.108358,0.0010550529
0.65656567,0.56565654,-0.0011307001,-0.00020680204,-14.925478,-12.008532,-18.071703,0.0011494562
0.65656567,0.6060606,-0.0012276806,-0.0002207011,-15.952978,-12.575555,-18.970102,0.0012473607
0.65656567,0.64646465,-0.0013275184,-0.00023493543,-16.999275,-13.16491,-19.802454,0.0013481467
0.65656567,0.68686867,-0.0014294535,-0.0002495367,-18.061249,-13.778622,-20.568605,0.0014510705
0.65656567,0.72727275,-0.0015330054,-0.00026451424,-19.135899,-14.419735,-21.268808,0.0015556585
0.65656567,0.7676768,-0.0016375631,-0.00028002635,-20.21784,-15.090255,-21.903679,0.0016613331
0.65656567,0.8080808,-0.001742512,-0.00029604323,-21.302767,-15.792096,-22.47484,0.0017674812
0.65656567,0.8484849,-0.0018472895,-0.00031273067,-22.383902,-16.526316,-22.98452,0.0018735739
0.65656567,0.8888889,-0.0019514896,-0.00033008307,-23.453537,-17.29299,-23.435387,0.0019792086
0.65656567,0.9292929,-0.0020545386,-0.00034824573,-24.505281,-18.092354,-23.83089,0.0020838436
0.65656567,0.969697,-0.0021560453,-0.0003673155,-25.529865,-18.923399,-24.175104,0.0021871105
0.65656567,1.010101,-0.0022555515,-0.00038742088,-26.518562,-19.783552,-24.472618,0.002288582
0.65656567,1.050505,-0.0023526587,-0.0004086811,-27.462877,-20.67028,-24.728664,0.0023878908
0.65656567,1.0909091,-0.0024471618,-0.00043110177,-28.352453,-21.57872,-24.948885,0.002484844
0.65656567,1.1313131,-0.002538737,-0.00045486167,-29.17823,-22.504045,-25.139118,0.0025791635
0.65656567,1.1717172,-0.0026271231,-0.00048013404,-29.931526,-23.440779,-25.305826,0.0026706376
0.65656567,1.2121212,-0.0027120784,-0.0005069766,-30.602308,-24.38119,-25.455845,0.0027590569
0.65656567,1.2525252,-0.0027934648,-0.00053540245,-31.182737,-25.31733,-25.595657,0.0028443104
0.65656567,1.2929293,-0.0028712489,-0.0005655773,-31.665258,-26.240393,-25.732029,0.0029264223
0.65656567,1.3333334,-0.002945274,-0.00059753656,-32.04288,-27.141468,-25.871658,0.003005277
0.65656567,1.3737373,-0.0030154996,-0.0006313175,-32.30999,-28.010122,-26.021254,0.0030808763
0.65656567,1.4141414,-0.0030819178,-0.0006669387,-32.463646,-28.836325,-26.186832,0.0031532561
0.65656567,1.4545455,-0.0031444505,-0.00070447475,-32.50051,-29.610233,-26.374193,0.0032223987
0.65656567,1.4949495,-0.0032032356,-0.000743879,-32.420246,-30.321024,-26.588707,0.003288476
0.65656567,1.5353535,-0.003258206,-0.0007849932,-32.22401,-30.958519,-26.834812,0.0033514355
0.65656567,1.5757576,-0.0033094995,-0.0008278992,-31.914457,-31.513187,-27.116478,0.0034114812
0.65656567,1.6161616,-0.0033571534,-0.00087237917,-31.497751,-31.97611,-27.4367,0.0034686488
0.65656567,1.6565657,-0.0034011155,-0.0009184368,-30.98083,-32.339195,-27.797632,0.003522941
0.65656567,1.6969697,-0.003441561,-0.00096580014,-30.372458,-32.59475,-28.200407,0.0035745087
0.65656567,1.7373737,-0.0034783073,-0.0010143407,-29.684963,-32.7373,-28.64519,0.0036231903
0.65656567,1.7777778,-0.0035115369,-0.0010637939,-28.930353,-32.761105,-29.13074,0.0036691346
0.65656567,1.8181819,-0.0035411045,-0.001114089,-28.12465,-32.66422,-29.655727,0.0037122252
0.65656567,1.8585858,-0.003566932,-0.001164835,-27.283665,-32.443703,-30.21656,0.0037523117
0.65656567,1.8989899,-0.0035890006,-0.0012156926,-26.424994,-32.099174,-30.809277,0.0037893052
0.65656567,1.939394,-0.0036070794,-0.001266487,-25.56704,-31.631927,-31.42909,0.0038229586
0.65656567,1.979798,-0.0036210045,-0.0013169348,-24.729153,-31.04504,-32.06987,0.0038530496
0.65656567,2.020202,-0.0036304668,-0.0013666507,-23.930748,-30.342167,-32.724884,0.003879178
0.65656567,2.060606,-0.003635373,-0.0014153123,-23.19119,-29.529448,-33.38671,0.0039011596
0.65656567,2.10101,-0.0036351867,-0.0014625639,-22.528809,-28.613174,-34.047173,0.0039183768
0.65656567,2.1414142,-0.0036296211,-0.0015081652,-21.96116,-27.601658,-34.697674,0.003930485
0.65656567,2.1818182,-0.0036182106,-0.0015516356,-21.505919,-26.504211,-35.32919,0.00393688
0.65656567,2.2222223,-0.0036005042,-0.0015927702,-21.176708,-25.330791,-35.93258,0.0039370735
0.65656567,2.2626262,-0.0035758875,-0.0016312636,-20.986454,-24.091621,-36.49857,0.0039303936
0.65656567,2.3030303,-0.0035438724,-0.0016666725,-20.94587,-22.798128,-37.01764,0.0039162263
0.65656567,2.3434343,-0.0035038888,-0.0016989168,-21.063225,-21.46199,-37.48119,0.003894041
0.65656567,2.3838384,-0.003455311,-0.001727581,-21.343597,-20.094652,-37.879917,0.0038631218
0.65656567,2.4242425,-0.0033974163,-0.0017524846,-21.788029,-18.707355,-38.20609,0.003822779
0.65656567,2.4646466,-0.0033296011,-0.0017734356,-22.39681,-17.311956,-38.4513,0.0037724418
0.65656567,2.5050504,-0.0032511503,-0.0017902348,-23.16545,-15.919069,-38.60872,0.0037114578
0.65656567,2.5454545,-0.0031614266,-0.001802804,-24.087173,-14.539442,-38.671947,0.0036393297
0.65656567,2.5858586,-0.0030596554,-0.0018108804,-25.151476,-13.182539,-38.63502,0.0035553875
0.65656567,2.6262627,-0.0029453412,-0.0018145274,-26.346397,-11.857821,-38.49336,0.0034594138
0.65656567,2.6666667,-0.0028177202,-0.0018136092,-27.656342,-10.573469,-38.242508,0.0033509291
0.65656567,2.7070708,-0.0026761554,-0.0018082596,-29.062288,-9.336656,-37.879635,0.0032298004
0.65656567,2.7474747,-0.0025199503,-0.0017983709,-30.545576,-8.154386,-37.402332,0.0030958499
0.65656567,2.7878788,-0.0023487993,-0.0017840806,-32.08496,-7.0324273,-36.808975,0.0029495426
0.65656567,2.8282828,-0.002161894,-0.0017655157,-33.656086,-5.9749737,-36.09906,0.002791206
0.65656567,2.868687,-0.0019588433,-0.0017427485,-35.23588,-4.9863467,-35.27251,0.0026218772
0.65656567,2.909091,-0.0017392561,-0.0017159376,-36.800915,-4.0702047,-34.330067,0.0024432465
0.65656567,2.9494948,-0.0015025884,-0.0016854685,-38.32426,-3.2282684,-33.273666,0.0022580025
0.65656567,2.989899,-0.0012485944,-0.0016513821,-39.783215,-2.4626708,-32.10483,0.002070278
0.65656567,3.030303,-0.000976894,-0.0016140323,-41.15117,-1.7734978,-30.826424,0.0018866431
0.65656567,3.070707,-0.00068731233,-0.0015737489,-42.40468,-1.160798,-29.44166,0.0017172897
0.65656567,3.1111112,-0.0003795363,-0.0015306957,-43.52294,-0.62586725,-27.953781,0.0015770469
0.65656567,3.1515152,-5.3443015e-05,-0.0014854576,-44.48151,-0.16601272,-26.367157,0.0014864188
0.65656567,3.191919,0.0002910532,-0.0014382284,-45.261875,0.21940538,-24.685726,0.001467383
0.65656567,3.2323232,0.000654079,-0.0013894066,-45.845287,0.5321888,-22.913748,0.0015356661
0.65656567,3.2727273,0.0010355897,-0.0013393983,-46.214085,0.77484417,-21.056202,0.0016930547
0.65656567,3.3131313,0.0014357455,-0.0012886152,-46.35242,0.95036376,-19.117847,0.0019292211
0.65656567,3.3535354,0.0018541776,-0.0012374986,-46.249153,1.0604719,-17.103285,0.00222921
0.65656567,3.3939395,0.002291102,-0.0011864193,-45.8893,1.110132,-15.0181465,0.0025800657
0.65656567,3.4343433,0.0027462058,-0.001135787,-45.264484,1.1026837,-12.866974,0.0029718105
0.65656567,3.4747474,0.0032194443,-0.0010860655,-44.36583,1.0418847,-10.655242,0.0033976992
0.65656567,3.5151515,0.0037105605,-0.0010376051,-43.186775,0.9319612,-8.387673,0.003852906
0.65656567,3.5555556,0.004219312,-0.000990862,-41.72302,0.7774417,-6.069981,0.0043340977
0.65656567,3.5959597,0.004745595,-0.0009462498,-39.969128,0.5836286,-3.706655,0.0048390147
0.65656567,3.6363637,0.005289059,-0.00090418383,-37.923794,0.35512438,-1.3030851,0.0053657894
0.65656567,3.6767676,0.0058494434,-0.00086498633,-35.5865,0.09715754,1.1357694,0.0059130522
0.65656567,3.7171717,0.0064265244,-0.00082905963,-32.95527,-0.18384609,3.6049492,0.0064797807
0.65656567,3.7575758,0.007019963,-0.00079677626,-30.032661,-0.48320362,6.0998225,0.0070650363
0.65656567,3.7979798,0.007629525,-0.0007684082,-26.819508,-0.79448414,8.615237,0.0076681226
0.65656567,3.838384,0.00825477,-0.0007444043,-23.318666,-1.1118195,11.146545,0.008288267
0.65656567,3.878788,0.008895401,-0.0007249471,-19.534338,-1.4293454,13.689222,0.008924892
0.65656567,3.9191918,0.00955129,-0.00071051717,-15.468112,-1.7402502,16.238691,0.009577681
0.65656567,3.959596,0.010221858,-0.00070110895,-11.126696,-2.0389774,18.790487,0.010245874
0.65656567,4.0,0.010906834,-0.0006971527,-6.512951,-2.3184857,21.340282,0.010929092
0.7070707,0.04040404,-0.0004051663,-6.172061e-05,-3.1437132,-5.7329907,-1.8770976,0.0004098404
0.7070707,0.08080808,-0.00041370466,-7.2715804e-05,-4.079744,-6.341944,-3.3780146,0.0004200466
0.7070707,0.121212125,-0.00043208525,-8.4251165e-05,-4.9903107,-6.9496555,-4.8621,0.0004402226
0.7070707,0.16161616,-0.00046013296,-9.632856e-05,-5.880966,-7.5557885,-6.324404,0.000470108
0.7070707,0.2020202,-0.0004972778,-0.00010895543,-6.7567163,-8.159096,-7.7599044,0.0005090742
0.7070707,0.24242425,-0.00054313615,-0.000122156,-7.623363,-8.760249,-9.163725,0.00055670366
0.7070707,0.28282827,-0.0005972646,-0.00013584644,-8.484937,-9.358739,-10.531294,0.0006125188
0.7070707,0.32323232,-0.0006590225,-0.00015019625,-9.345972,-9.95497,-11.858316,0.00067592127
0.7070707,0.36363637,-0.0007280633,-0.00016509742,-10.210488,-10.550223,-13.140589,0.0007465476
0.7070707,0.4040404,-0.0008036159,-0.00018044561,-11.08148,-11.144613,-14.374241,0.0008236256
0.7070707,0.44444445,-0.00088508055,-0.00019640103,-11.961805,-11.740148,-15.5557995,0.0009066096
0.7070707,0.4848485,-0.0009720139,-0.00021286495,-12.853769,-12.338336,-16.68227,0.000995049
0.7070707,0.5252525,-0.0010636002,-0.00022985041,-13.758692,-12.941403,-17.750776,0.0010881528
0.7070707,0.56565654,-0.0011593811,-0.00024741516,-14.678383,-13.552349,-18.75904,0.0011854868
0.7070707,0.6060606,-0.0012585111,-0.0002654493,-15.612611,-14.173825,-19.705256,0.0012862012
0.7070707,0.64646465,-0.0013605729,-0.0002840832,-16.560312,-14.808368,-20.588165,0.0013899143
0.7070707,0.68686867,-0.0014648177,-0.000303315,-17.520828,-15.459408,-21.407017,0.0014958913
0.7070707,0.72727275,-0.0015706643,-0.00032311678,-18.491875,-16.129684,-22.161524,0.0016035557
0.7070707,0.7676768,-0.0016774572,-0.0003435146,-19.470737,-16.82196,-22.852058,0.001712269
0.7070707,0.8080808,-0.0017846487,-0.0003646519,-20.45374,-17.539223,-23.479738,0.0018215219
0.7070707,0.8484849,-0.0018916614,-0.00038653612,-21.435545,-18.283176,-24.046215,0.0019307494
0.7070707,0.8888889,-0.0019978993,-0.00040931068,-22.411787,-19.055984,-24.553497,0.0020393962
0.7070707,0.9292929,-0.0021029897,-0.0004329197,-23.375326,-19.85783,-25.004717,0.0021470876
0.7070707,0.969697,-0.002206441,-0.00045757927,-24.320213,-20.689829,-25.4035,0.0022533888
0.7070707,1.010101,-0.0023077168,-0.0004833117,-25.238632,-21.551058,-25.753473,0.0023577842
0.7070707,1.050505,-0.002406504,-0.00051024556,-26.122473,-22.439774,-26.059706,0.0024600024
0.7070707,1.0909091,-0.002502475,-0.00053847395,-26.963663,-23.353735,-26.32732,0.002559753
0.7070707,1.1313131,-0.0025953278,-0.00056810305,-27.754118,-24.289736,-26.561493,0.0026567776
0.7070707,1.1717172,-0.0026846565,-0.00059918687,-28.484602,-25.242914,-26.768742,0.0027507101
0.7070707,1.2121212,-0.002770424,-0.0006320439,-29.147429,-26.208109,-26.954918,0.0028416065
0.7070707,1.2525252,-0.0028523915,-0.0006665103,-29.733904,-27.17841,-27.126617,0.0029292274
0.7070707,1.2929293,-0.0029304512,-0.00070280954,-30.236465,-28.146809,-27.290794,0.0030135503
0.7070707,1.3333334,-0.0030043423,-0.00074103475,-30.648502,-29.104753,-27.453747,0.0030943828
0.7070707,1.3737373,-0.0030743591,-0.0007811282,-30.964415,-30.04387,-27.62204,0.0031720411
0.7070707,1.4141414,-0.0031401552,-0.0008232184,-31.178688,-30.954126,-27.802044,0.0032462692
0.7070707,1.4545455,-0.003201861,-0.0008673351,-31.28798,-31.825668,-27.999897,0.0033172555
0.7070707,1.4949495,-0.0032595024,-0.00091353245,-31.29118,-32.64944,-28.220772,0.0033850991
0.7070707,1.5353535,-0.0033131689,-0.0009616744,-31.187006,-33.41392,-28.470135,0.0034499138
0.7070707,1.5757576,-0.0033628903,-0.0010117777,-30.97799,-34.110172,-28.752235,0.003511798
0.7070707,1.6161616,-0.0034086443,-0.0010637902,-30.666687,-34.72806,-29.070597,0.003570785
0.7070707,1.6565657,-0.0034506097,-0.0011175498,-30.25956,-35.2589,-29.428045,0.0036270684
0.7070707,1.6969697,-0.0034888275,-0.0011729933,-29.76317,-35.69405,-29.826248,0.003680738
0.7070707,1.7373737,-0.0035234205,-0.0012299642,-29.18782,-36.026436,-30.266418,0.0037319304
0.7070707,1.7777778,-0.0035543405,-0.0012882315,-28.544199,-36.249214,-30.747889,0.003780592
0.7070707,1.8181819,-0.0035815388,-0.0013476107,-27.846489,-36.35814,-31.269833,0.0038266794
0.7070707,1.8585858,-0.0036051236,-0.0014078822,-27.108404,-36.34861,-31.829767,0.0038702777
0.7070707,1.8989899,-0.0036250018,-0.0014687758,-26.346718,-36.21842,-32.424416,0.003911258
0.7070707,1.939394,-0.0036410168,-0.0015299451,-25.579165,-35.96676,-33.049053,0.003949397
0.7070707,1.979798,-0.0036531612,-0.0015912466,-24.824003,-35.594322,-33.69858,0.003984677
0.7070707,2.020202,-0.0036611557,-0.0016522054,-24.099892,-35.102665,-34.366703,0.0040166955
0.7070707,2.060606,-0.003664773,-0.0017125905,-23.426031,-34.495567,-35.045906,0.0040451856
0.7070707,2.10101,-0.0036637,-0.0017719995,-22.821451,-33.778248,-35.728428,0.0040697274
0.7070707,2.1414142,-0.0036576577,-0.0018301327,-22.304693,-32.956398,-36.405758,0.0040899687
0.7070707,2.1818182,-0.0036462918,-0.0018865578,-21.89266,-32.037327,-37.068443,0.0041054287
0.7070707,2.2222223,-0.0036289804,-0.0019410606,-21.601799,-31.02982,-37.7074,0.0041154847
0.7070707,2.2626262,-0.0036054626,-0.0019932278,-21.446602,-29.942844,-38.312702,0.0041197473
0.7070707,2.3030303,-0.003574945,-0.0020426847,-21.437761,-28.785824,-38.87461,0.0041173766
0.7070707,2.3434343,-0.0035370626,-0.0020891763,-21.586987,-27.570108,-39.383366,0.0041079763
0.7070707,2.3838384,-0.0034910701,-0.0021324158,-21.899979,-26.305819,-39.829662,0.004090815
0.7070707,2.4242425,-0.0034364164,-0.002172025,-22.381426,-25.003849,-40.203823,0.0040652985
0.7070707,2.4646466,-0.0033723153,-0.002207851,-23.031921,-23.675083,-40.497356,0.004030771
0.7070707,2.5050504,-0.003298048,-0.0022396166,-23.849745,-22.330336,-40.701622,0.0039866026
0.7070707,2.5454545,-0.0032130405,-0.002267165,-24.829702,-20.979803,-40.809868,0.003932387
0.7070707,2.5858586,-0.0031163767,-0.0022902824,-25.962284,-19.632853,-40.814587,0.0038674537
0.7070707,2.6262627,-0.0030075833,-0.002308799,-27.236778,-18.299198,-40.709927,0.0037915842
0.7070707,2.6666667,-0.002885852,-0.0023227278,-28.638763,-16.987602,-40.490997,0.0037044846
0.7070707,2.7070708,-0.0027503558,-0.0023319442,-30.150202,-15.705013,-40.153427,0.0036058868
0.7070707,2.7474747,-0.002600599,-0.0023363996,-31.75164,-14.458844,-39.693596,0.0034959803
0.7070707,2.7878788,-0.0024358444,-0.0023360867,-33.42156,-13.255075,-39.10943,0.0033750022
0.7070707,2.8282828,-0.0022553876,-0.0023311693,-35.136215,-12.099099,-38.399258,0.0032436282
0.7070707,2.868687,-0.0020588785,-0.002321612,-36.87045,-10.995258,-37.5624,0.0031030409
0.7070707,2.909091,-0.0018456057,-0.0023076478,-38.597427,-9.946652,-36.599213,0.002954911
0.7070707,2.9494948,-0.0016150139,-0.0022893324,-40.29185,-8.956987,-35.51047,0.0028016625
0.7070707,2.989899,-0.0013669021,-0.0022669788,-41.92591,-8.027641,-34.297897,0.00264719
0.7070707,3.030303,-0.0011007227,-0.0022407155,-43.472347,-7.160492,-32.964005,0.002496477
0.7070707,3.070707,-0.0008161217,-0.0022107698,-44.905712,-6.355889,-31.51131,0.0023565989
0.7070707,3.1111112,-0.00051287934,-0.0021776184,-46.20005,-5.6145887,-29.94373,0.0022372007
0.7070707,3.1515152,-0.00019073859,-0.0021413825,-47.330746,-4.935544,-28.264883,0.0021498606
0.7070707,3.191919,0.00015043467,-0.0021024887,-48.274498,-4.3183722,-26.479076,0.0021078635
0.7070707,3.2323232,0.000510931,-0.0020612162,-49.010456,-3.7618225,-24.590698,0.0021235966
0.7070707,3.2727273,0.0008906424,-0.002018094,-49.518368,-3.2645497,-22.60522,0.0022058892
0.7070707,3.3131313,0.0012896843,-0.001973316,-49.780094,-2.8238885,-20.527079,0.0023573844
0.7070707,3.3535354,0.0017080046,-0.0019275248,-49.77996,-2.4383528,-18.362219,0.0025753896
0.7070707,3.3939395,0.0021456368,-0.0018808059,-49.503746,-2.1048636,-16.11537,0.002853277
0.7070707,3.4343433,0.0026023947,-0.0018339418,-48.939262,-1.8207787,-13.792443,0.0031836773
0.7070707,3.4747474,0.0030782036,-0.0017871279,-48.07649,-1.5826232,-11.398905,0.0035593768
0.7070707,3.5151515,0.0035727918,-0.0017407984,-46.908066,-1.3878868,-8.94017,0.00397432
0.7070707,3.5555556,0.0040861927,-0.0016954783,-45.42569,-1.231636,-6.421892,0.004423982
0.7070707,3.5959597,0.0046178885,-0.0016515851,-43.627777,-1.1117574,-3.8495288,0.0049043475
0.7070707,3.6363637,0.005167842,-0.0016094092,-41.508705,-1.0224931,-1.228615,0.0054126508
0.7070707,3.6767676,0.0057356916,-0.0015695114,-39.06746,-0.96010566,1.4351753,0.0059465556
0.7070707,3.7171717,0.0063212477,-0.0015322026,-36.30469,-0.9203168,4.136808,0.006504292
0.7070707,3.7575758,0.0069240853,-0.001497861,-33.22134,-0.89828575,6.870657,0.0070842463
0.7070707,3.7979798,0.0075439177,-0.0014669411,-29.819407,-0.88888973,9.631597,0.0076852203
0.7070707,3.838384,0.008180436,-0.0014397055,-26.102127,-0.8871376,12.414281,0.00830616
0.7070707,3.878788,0.008833308,-0.001416482,-22.07314,-0.8875406,15.214101,0.008946158
0.7070707,3.9191918,0.009502184,-0.0013977699,-17.737297,-0.884959,18.025326,0.009604439
0.7070707,3.959596,0.01018675,-0.0013837367,-13.0991955,-0.8732618,20.843397,0.010280302
0.7070707,4.0,0.010886524,-0.0013746321,-8.165424,-0.84716344,23.663704,0.010972967
0.75757575,0.04040404,-0.0004072748,-7.456541e-05,-3.1767926,-5.893099,-2.325621,0.00041404442
0.75757575,0.08080808,-0.00041775033,-8.607656e-05,-4.1557555,-6.642204,-3.8175082,0.0004265261
0.75757575,0.121212125,-0.00043817237,-9.837374e-05,-5.0979834,-7.388124,-5.2964926,0.00044907953
0.75757575,0.16161616,-0.0004680939,-0.00011156313,-6.0091524,-8.130527,-6.7578425,0.00048120497
0.75757575,0.2020202,-0.00050704554,-0.00012565032,-6.8944993,-8.867911,-8.196317,0.0005223822
0.75757575,0.24242425,-0.00055469945,-0.00014055893,-7.7587166,-9.599265,-9.607109,0.000572231
0.75757575,0.28282827,-0.0006105043,-0.00015633926,-8.606658,-10.323949,-10.985586,0.0006302043
0.75757575,0.32323232,-0.0006741248,-0.00017312355,-9.44241,-11.041216,-12.327443,0.000696
0.75757575,0.36363637,-0.00074479356,-0.00019068643,-10.270893,-11.751374,-13.628109,0.0007688165
0.75757575,0.4040404,-0.0008220561,-0.00020908192,-11.09505,-12.454552,-14.884076,0.00084822846
0.75757575,0.44444445,-0.00090534985,-0.00022842735,-11.919008,-13.152148,-16.091581,0.00093372236
0.75757575,0.4848485,-0.0009940043,-0.00024855696,-12.744653,-13.844543,-17.247442,0.0010246098
0.75757575,0.5252525,-0.0010874569,-0.00026947632,-13.575607,-14.534099,-18.348478,0.0011203482
0.75757575,0.56565654,-0.0011850186,-0.0002912674,-14.413068,-15.222762,-19.392584,0.0012202893
0.75757575,0.6060606,-0.0012861006,-0.0003138613,-15.257753,-15.912797,-20.377579,0.0013238443
0.75757575,0.64646465,-0.0013900734,-0.00033720955,-16.111647,-16.607382,-21.30196,0.0014303896
0.75757575,0.68686867,-0.0014961734,-0.0003614016,-16.97406,-17.30967,-22.16441,0.0015392031
0.75757575,0.72727275,-0.0016039088,-0.0003864281,-17.844002,-18.022537,-22.964647,0.0016498031
0.75757575,0.7676768,-0.0017126016,-0.00041230023,-18.720024,-18.749125,-23.70291,0.0017615323
0.75757575,0.8080808,-0.0018216819,-0.0004389938,-19.60097,-19.493328,-24.379246,0.0018738303
0.75757575,0.8484849,-0.0019305535,-0.0004666522,-20.4827,-20.25727,-24.995142,0.0019861523
0.75757575,0.8888889,-0.0020386465,-0.00049538724,-21.361658,-21.044083,-25.552485,0.0020979722
0.75757575,0.9292929,-0.00214554,-0.000524994,-22.232908,-21.85464,-26.053675,0.0022088368
0.75757575,0.969697,-0.0022506192,-0.0005557351,-23.09238,-22.692047,-26.501438,0.0023182167
0.75757575,1.010101,-0.0023534708,-0.00058772415,-23.93257,-23.556068,-26.899853,0.002425746
0.75757575,1.050505,-0.0024537034,-0.000620991,-24.748178,-24.447277,-27.252678,0.0025310651
0.75757575,1.0909091,-0.0025509186,-0.00065563247,-25.531416,-25.364037,-27.564644,0.002633826
0.75757575,1.1313131,-0.0026448518,-0.00069176406,-26.275755,-26.305264,-27.840942,0.0027338213
0.75757575,1.1717172,-0.0027351528,-0.0007294081,-26.972748,-27.267298,-28.087198,0.0028307415
0.75757575,1.2121212,-0.002821695,-0.0007687826,-27.615055,-28.24673,-28.309208,0.0029245496
0.75757575,1.2525252,-0.0029041767,-0.00080987066,-28.195276,-29.238838,-28.513268,0.0030149848
0.75757575,1.2929293,-0.0029824674,-0.00085290335,-28.705912,-30.237068,-28.705626,0.0031020246
0.75757575,1.3333334,-0.0030564629,-0.00089782104,-29.140062,-31.23497,-28.893013,0.0031856
0.75757575,1.3737373,-0.0031261109,-0.0009448342,-29.491,-32.224537,-29.081661,0.0032657743
0.75757575,1.4141414,-0.003191404,-0.0009939112,-29.754522,-33.19791,-29.278214,0.0033425917
0.75757575,1.4545455,-0.003252387,-0.0010450855,-29.92578,-34.145557,-29.488493,0.0034161713
0.75757575,1.4949495,-0.0033090003,-0.0010984652,-30.001987,-35.05826,-29.718536,0.0034865611
0.75757575,1.5353535,-0.003361363,-0.0011539273,-29.982483,-35.926304,-29.973429,0.0035539146
0.75757575,1.5757576,-0.003409531,-0.0012115184,-29.86632,-36.739597,-30.258024,0.0036183805
0.75757575,1.6161616,-0.003453698,-0.0012712367,-29.655546,-37.488106,-30.576635,0.0036802273
0.75757575,1.6565657,-0.0034937598,-0.0013329741,-29.35481,-38.163067,-30.932344,0.0037394087
0.75757575,1.6969697,-0.003529992,-0.0013966374,-28.968807,-38.75487,-31.32785,0.00379624
0.75757575,1.7373737,-0.003562402,-0.001462074,-28.505543,-39.25506,-31.764488,0.003850762
0.75757575,1.7777778,-0.003591109,-0.0015290976,-27.97497,-39.656147,-32.24298,0.003903102
0.75757575,1.8181819,-0.0036160983,-0.0015976094,-27.38797,-39.95168,-32.762707,0.0039532925
0.75757575,1.8585858,-0.0036374554,-0.0016673561,-26.75836,-40.13615,-33.322174,0.0040013944
0.75757575,1.8989899,-0.0036551952,-0.001738051,-26.100245,-40.205227,-33.918602,0.0040473784
0.75757575,1.939394,-0.0036692359,-0.0018095113,-25.43097,-40.156513,-34.548283,0.004091164
0.75757575,1.979798,-0.003679499,-0.001881456,-24.766521,-39.98782,-35.20645,0.004132625
0.75757575,2.020202,-0.003685955,-0.0019534416,-24.126299,-39.6996,-35.88704,0.0041715945
0.75757575,2.060606,-0.0036882646,-0.0020252,-23.528162,-39.293015,-36.583374,0.004207699
0.75757575,2.10101,-0.0036862604,-0.002096478,-22.991184,-38.770866,-37.288074,0.0042407233
0.75757575,2.1414142,-0.0036798008,-0.0021668859,-22.534517,-38.13798,-37.992447,0.0042704013
0.75757575,2.1818182,-0.0036681704,-0.0022359565,-22.175562,-37.399,-38.6872,0.0042959256
0.75757575,2.2222223,-0.00365128,-0.0023034979,-21.93107,-36.560513,-39.363132,0.004317169
0.75757575,2.2626262,-0.003628675,-0.0023690257,-21.817495,-35.63072,-40.01028,0.0043335394
0.75757575,2.3030303,-0.0035996325,-0.0024322495,-21.847288,-34.617435,-40.618023,0.004344329
0.75757575,2.3434343,-0.003563758,-0.0024927743,-22.033213,-33.530437,-41.176464,0.004349057
0.75757575,2.3838384,-0.0035203919,-0.0025502034,-22.382824,-32.378387,-41.675022,0.004347033
0.75757575,2.4242425,-0.0034689084,-0.0026043095,-22.903177,-31.172106,-42.103878,0.004337713
0.75757575,2.4646466,-0.0034085102,-0.0026547723,-23.597067,-29.921316,-42.453064,0.0043203887
0.75757575,2.5050504,-0.0033386052,-0.0027013328,-24.464529,-28.636112,-42.71327,0.0042945878
0.75757575,2.5454545,-0.0032584555,-0.0027436763,-25.50249,-27.326937,-42.876286,0.0042597293
0.75757575,2.5858586,-0.0031672344,-0.0027816612,-26.703096,-26.002592,-42.93383,0.004215331
0.75757575,2.6262627,-0.0030641332,-0.0028149858,-28.056557,-24.672329,-42.878555,0.0041608964
0.75757575,2.6666667,-0.0029485486,-0.0028436538,-29.549805,-23.344973,-42.704502,0.004096377
0.75757575,2.7070708,-0.0028196052,-0.002867315,-31.166388,-22.02822,-42.405895,0.004021401
0.75757575,2.7474747,-0.0026765056,-0.0028861407,-32.88649,-20.729136,-41.978638,0.003936177
0.75757575,2.7878788,-0.0025186352,-0.0028998777,-34.689114,-19.454165,-41.419117,0.0038409394
0.75757575,2.8282828,-0.0023453534,-0.0029086247,-36.549633,-18.208912,-40.724743,0.0037364126
0.75757575,2.868687,-0.0021558553,-0.0029123463,-38.442043,-16.99791,-39.89423,0.0036234614
0.75757575,2.909091,-0.001949627,-0.0029112287,-40.339367,-15.825209,-38.926693,0.0035037547
0.75757575,2.9494948,-0.0017259046,-0.002905231,-42.211514,-14.693462,-37.822285,0.003379218
0.75757575,2.989899,-0.0014843903,-0.0028945971,-44.031628,-13.605883,-36.582764,0.003253015
0.75757575,3.030303,-0.0012244768,-0.0028794743,-45.769455,-12.564321,-35.209328,0.003129012
0.75757575,3.070707,-0.0009457953,-0.002860112,-47.395374,-11.568951,-33.7049,0.003012436
0.75757575,3.1111112,-0.0006478466,-0.0028366782,-48.881134,-10.621076,-32.07285,0.0029097162
0.75757575,3.1515152,-0.00033052266,-0.0028096177,-50.19957,-9.720751,-30.316633,0.002828992
0.75757575,3.191919,6.5229833e-06,-0.0027790181,-51.32422,-8.867809,-28.440594,0.0027790258
0.75757575,3.2323232,0.00036359206,-0.002745293,-52.23035,-8.061348,-26.449493,0.002769266
0.75757575,3.2727273,0.0007406883,-0.0027088728,-52.895,-7.3005185,-24.34873,0.002808311
0.75757575,3.3131313,0.0011379682,-0.0026700888,-53.29692,-6.583795,-22.143011,0.0029024724
0.75757575,3.3535354,0.0015554614,-0.0026293434,-53.41605,-5.909193,-19.83824,0.0030549807
0.75757575,3.3939395,0.001993131,-0.0025869645,-53.239162,-5.276371,-17.440195,0.0032657245
0.75757575,3.4343433,0.0024509318,-0.002543535,-52.74834,-4.6818566,-14.954637,0.0035322283
0.75757575,3.4747474,0.0029287748,-0.0024992172,-51.932354,-4.123792,-12.387357,0.00385017
0.75757575,3.5151515,0.0034265742,-0.002454741,-50.78061,-3.599421,-9.744746,0.004215111
0.75757575,3.5555556,0.003943976,-0.0024104025,-49.286392,-3.10684,-7.0325456,0.0046222275
0.75757575,3.5959597,0.004480917,-0.0023665596,-47.443962,-2.6430194,-4.2565827,0.005067467
0.75757575,3.6363637,0.00503717,-0.0023238305,-45.248154,-2.2045932,-1.423188,0.005547366
0.75757575,3.6767676,0.0056123324,-0.002282424,-42.69794,-1.7885121,1.4619007,0.0060586906
0.75757575,3.7171717,0.0062061623,-0.0022429284,-39.792847,-1.3915251,4.3928156,0.0065990286
0.75757575,3.7575758,0.006818466,-0.0022057965,-36.53288,-1.0094937,7.363588,0.007166381
0.75757575,3.7979798,0.007448841,-0.002171306,-32.92171,-0.63887495,10.36864,0.007758853
0.75757575,3.838384,0.008096907,-0.0021399017,-28.962275,-0.2756558,13.402459,0.008374908
0.75757575,3.878788,0.008762274,-0.0021119118,-24.6594,0.08465353,16.45933,0.009013191
0.75757575,3.9191918,0.009444658,-0.0020878017,-20.018862,0.44640687,19.53349,0.009672667
0.75757575,3.959596,0.010143641,-0.0020678267,-15.047651,0.81371707,22.620285,0.010352264
0.75757575,4.0,0.010858815,-0.002052268,-9.750982,1.1924407,25.714293,0.0110510485
0.8080808,0.04040404,-0.0004091449,-8.880347e-05,-3.124905,-6.0357356,-2.8027499,0.00041867126
0.8080808,0.08080808,-0.00042157993,-0.000100877136,-4.146936,-6.9284596,-4.2816296,0.00043348107
0.8080808,0.121212125,-0.0004438348,-0.00011412613,-5.1224847,-7.817857,-5.7512884,0.00045827296
0.8080808,0.16161616,-0.00047549233,-0.00012846664,-6.0564756,-8.701986,-7.2066097,0.000492541
0.8080808,0.2020202,-0.0005161576,-0.0001440458,-6.953511,-9.578906,-8.642508,0.00053588045
0.8080808,0.24242425,-0.0005654581,-0.0001608301,-7.8192677,-10.447209,-10.054201,0.0005878853
0.8080808,0.28282827,-0.0006228164,-0.00017885305,-8.658106,-11.30568,-11.436779,0.00064798817
0.8080808,0.32323232,-0.0006878786,-0.00019804761,-9.474232,-12.152743,-12.786073,0.00071582105
0.8080808,0.36363637,-0.0007600449,-0.00021846779,-10.272318,-12.987732,-14.097754,0.0007908201
0.8080808,0.4040404,-0.00083877146,-0.00024016388,-11.056068,-13.810405,-15.367804,0.0008724771
0.8080808,0.44444445,-0.00092354044,-0.00026297942,-11.829277,-14.620623,-16.592695,0.00096025266
0.8080808,0.4848485,-0.0010136627,-0.00028694607,-12.595698,-15.41912,-17.769068,0.0010534942
0.8080808,0.5252525,-0.0011085458,-0.00031204335,-13.357937,-16.206968,-18.893919,0.001151627
0.8080808,0.56565654,-0.001207564,-0.00033836998,-14.119198,-16.986153,-19.964642,0.0012540754
0.8080808,0.6060606,-0.0013101958,-0.0003657639,-14.88134,-17.75873,-20.979076,0.0013602927
0.8080808,0.64646465,-0.0014156178,-0.0003941357,-15.646149,-18.526707,-21.935488,0.0014694614
0.8080808,0.68686867,-0.0015233196,-0.0004236009,-16.41498,-19.293753,-22.832584,0.00158112
0.8080808,0.72727275,-0.0016325712,-0.00045421533,-17.187336,-20.062191,-23.669813,0.0016945797
0.8080808,0.7676768,-0.0017428361,-0.00048589148,-17.964342,-20.836346,-24.446606,0.0018093005
0.8080808,0.8080808,-0.0018534884,-0.00051863864,-18.744617,-21.619,-25.163425,0.0019246831
0.8080808,0.8484849,-0.001963824,-0.000552522,-19.526651,-22.414164,-25.821083,0.00204007
0.8080808,0.8888889,-0.0020734929,-0.00058748573,-20.307737,-23.22424,-26.421095,0.002155113
0.8080808,0.9292929,-0.0021817833,-0.00062373653,-21.085373,-24.052813,-26.9653,0.0022691905
0.8080808,0.969697,-0.0022882074,-0.00066116266,-21.855335,-24.901955,-27.456553,0.002381812
0.8080808,1.010101,-0.0023923777,-0.000699861,-22.613792,-25.773779,-27.897408,0.0024926444
0.8080808,1.050505,-0.0024938323,-0.00074003637,-23.354916,-26.669785,-28.292288,0.0026013176
0.8080808,1.0909091,-0.002592206,-0.00078158453,-24.073366,-27.589972,-28.64491,0.0027074723
0.8080808,1.1313131,-0.0026870333,-0.0008247178,-24.763264,-28.5343,-28.960186,0.0028107485
0.8080808,1.1717172,-0.0027781911,-0.00086946413,-25.417345,-29.500912,-29.243275,0.0029110673
0.8080808,1.2121212,-0.0028652772,-0.0009159073,-26.029047,-30.48795,-29.499567,0.0030081058
0.8080808,1.2525252,-0.002948217,-0.00096430816,-26.592146,-31.492437,-29.735054,0.0031019147
0.8080808,1.2929293,-0.00302675,-0.0010144897,-27.09876,-32.508793,-29.95587,0.0031922413
0.8080808,1.3333334,-0.0031007677,-0.0010667369,-27.543272,-33.532738,-30.168188,0.0032791293
0.8080808,1.3737373,-0.0031702481,-0.0011210665,-27.918863,-34.557774,-30.378311,0.0033626275
0.8080808,1.4141414,-0.0032351613,-0.0011775382,-28.220406,-35.576263,-30.59262,0.003442799
0.8080808,1.4545455,-0.0032954104,-0.0012362078,-28.442759,-36.580307,-30.817371,0.0035196503
0.8080808,1.4949495,-0.0033511482,-0.0012971163,-28.582853,-37.561844,-31.058222,0.0035934253
0.8080808,1.5353535,-0.0034023821,-0.0013603233,-28.637926,-38.511055,-31.321041,0.003664244
0.8080808,1.5757576,-0.003449209,-0.0014257301,-28.606684,-39.41865,-31.610668,0.003732258
0.8080808,1.6161616,-0.0034917071,-0.0014934335,-28.49021,-40.27547,-31.931799,0.0037976785
0.8080808,1.6565657,-0.0035301074,-0.0015633218,-28.290447,-41.0713,-32.28814,0.0038607814
0.8080808,1.6969697,-0.003564436,-0.0016353037,-28.011665,-41.797016,-32.682583,0.0039216606
0.8080808,1.7373737,-0.0035948455,-0.0017092898,-27.65937,-42.44333,-33.117687,0.0039805262
0.8080808,1.7777778,-0.0036214255,-0.0017851908,-27.241985,-43.00221,-33.594585,0.0040375274
0.8080808,1.8181819,-0.0036443248,-0.0018628836,-26.768362,-43.4654,-34.11336,0.004092852
0.8080808,1.8585858,-0.0036636256,-0.0019419566,-26.250868,-43.82601,-34.67307,0.004146486
0.8080808,1.8989899,-0.0036793165,-0.0020224713,-25.70176,-44.07875,-35.271957,0.004198543
0.8080808,1.939394,-0.0036913566,-0.0021039639,-25.136646,-44.21871,-35.906685,0.004248856
0.8080808,1.979798,-0.003699828,-0.0021862686,-24.57091,-44.24246,-36.573402,0.004297499
0.8080808,2.020202,-0.003704641,-0.0022691116,-24.02274,-44.1485,-37.26689,0.0043443334
0.8080808,2.060606,-0.0037056804,-0.0023521427,-23.50937,-43.935696,-37.98054,0.0043891505
0.8080808,2.10101,-0.0037027113,-0.0024350435,-23.049324,-43.605232,-38.70754,0.0044316486
0.8080808,2.1414142,-0.00369557,-0.0025173277,-22.661825,-43.158737,-39.439465,0.0044714846
0.8080808,2.1818182,-0.0036838688,-0.002598891,-22.364424,-42.60028,-40.167404,0.0045083393
0.8080808,2.2222223,-0.0036673248,-0.0026791021,-22.175016,-41.9338,-40.88188,0.00454168
0.8080808,2.2626262,-0.0036454983,-0.002757689,-22.1108,-41.165886,-41.572693,0.004571051
0.8080808,2.3030303,-0.003617946,-0.0028343368,-22.185623,-40.302765,-42.229435,0.0045959763
0.8080808,2.3434343,-0.0035840273,-0.0029085372,-22.41318,-39.352535,-42.84128,0.0046157166
0.8080808,2.3838384,-0.0035432018,-0.0029800236,-22.80381,-38.32306,-43.397346,0.0046297754
0.8080808,2.4242425,-0.00349487,-0.0030484106,-23.365957,-37.22326,-43.886982,0.0046375557
0.8080808,2.4646466,-0.0034382567,-0.0031133052,-24.104927,-36.062706,-44.299232,0.0046383487
0.8080808,2.5050504,-0.00337274,-0.003174495,-25.022636,-34.85056,-44.624004,0.004631716
0.8080808,2.5454545,-0.0032975152,-0.0032314472,-26.11781,-33.59596,-44.85159,0.0046169097
0.8080808,2.5858586,-0.0032117553,-0.0032842048,-27.384789,-32.307735,-44.973194,0.004593623
0.8080808,2.6262627,-0.0031147636,-0.0033322833,-28.81635,-30.995377,-44.979877,0.0045613446
0.8080808,2.6666667,-0.003005609,-0.0033755712,-30.399866,-29.66684,-44.86431,0.0045197527
0.8080808,2.7070708,-0.0028834753,-0.0034138188,-32.119953,-28.329708,-44.619946,0.0044686226
0.8080808,2.7474747,-0.0027476288,-0.0034468863,-33.958687,-26.99154,-44.240944,0.004408003
0.8080808,2.7878788,-0.0025971942,-0.0034746956,-35.89383,-25.658516,-43.72269,0.0043380787
0.8080808,2.8282828,-0.0024315007,-0.0034972634,-37.90189,-24.336245,-43.06153,0.0042594657
0.8080808,2.868687,-0.002249714,-0.0035143886,-39.95578,-23.029636,-42.254906,0.0041727857
0.8080808,2.909091,-0.0020511113,-0.003526194,-42.026688,-21.742506,-41.30135,0.0040793507
0.8080808,2.9494948,-0.0018351078,-0.0035326593,-44.08568,-20.478989,-40.20024,0.003980867
0.8080808,2.989899,-0.0016009472,-0.0035340246,-46.101284,-19.241741,-38.95219,0.0038797373
0.8080808,3.030303,-0.0013481341,-0.0035302546,-48.04054,-18.031616,-37.558144,0.0037789105
0.8080808,3.070707,-0.0010761507,-0.0035215225,-49.873356,-16.851263,-36.02013,0.0036822848
0.8080808,3.1111112,-0.00078450516,-0.0035081245,-51.566803,-15.700845,-34.34145,0.0035947722
0.8080808,3.1515152,-0.00047284365,-0.0034902692,-53.090336,-14.580965,-32.525486,0.0035221528
0.8080808,3.191919,-0.00014070794,-0.0034681633,-54.413754,-13.491382,-30.576399,0.0034710164
0.8080808,3.2323232,0.00021201745,-0.0034421552,-55.51018,-12.432476,-28.49883,0.0034486786
0.8080808,3.2727273,0.0005856268,-0.003412608,-56.35047,-11.402473,-26.297947,0.0034624923
0.8080808,3.3131313,0.0009803474,-0.00337979,-56.912212,-10.401771,-23.979475,0.0035190997
0.8080808,3.3535354,0.0013961196,-0.003344195,-57.1728,-9.428806,-21.549084,0.003623919
0.8080808,3.3939395,0.0018331558,-0.0033060312,-57.111595,-8.482291,-19.012499,0.0037802516
0.8080808,3.4343433,0.0022913478,-0.0032658558,-56.710606,-7.5607753,-16.376574,0.0039894977
0.8080808,3.4747474,0.0027706064,-0.0032240525,-55.955864,-6.662978,-13.646953,0.0042509735
0.8080808,3.5151515,0.003270939,-0.0031811204,-54.833652,-5.7874136,-10.830575,0.004562737
0.8080808,3.5555556,0.0037921332,-0.003137447,-53.33491,-4.9322243,-7.933842,0.004921773
0.8080808,3.5959597,0.0043339133,-0.0030934066,-51.45256,-4.095975,-4.9630003,0.0053246566
0.8080808,3.6363637,0.004896175,-0.0030495524,-49.180588,-3.2762916,-1.9246999,0.0057682144
0.8080808,3.6767676,0.0054785125,-0.0030063074,-46.51555,-2.4711118,1.1747613,0.0062491586
0.8080808,3.7171717,0.006080769,-0.0029639956,-43.458294,-1.6787062,4.329022,0.0067646895
0.8080808,3.7575758,0.006702561,-0.0029233769,-40.007862,-0.89632124,7.53172,0.0073123495
0.8080808,3.7979798,0.0073435567,-0.0028845463,-36.167156,-0.12109936,10.776817,0.007889768
0.8080808,3.838384,0.008003417,-0.0028480887,-31.940733,0.64930195,14.057957,0.008495075
0.8080808,3.878788,0.008681718,-0.0028143525,-27.33454,1.4178966,17.369495,0.00912649
0.8080808,3.9191918,0.009378117,-0.002783835,-22.352716,2.1889126,20.70516,0.009782577
0.8080808,3.959596,0.010092173,-0.0027568024,-17.005112,2.9647658,24.0594,0.010461926
0.8080808,4.0,0.01082347,-0.0027337167,-11.299452,3.749177,27.42642,0.011163364
0.85858583,0.04040404,-0.00041046366,-0.00010480732,-2.9890783,-6.163691,-3.2966375,0.0004236331
0.85858583,0.08080808,-0.00042492524,-0.00011751428,-4.0534806,-7.202206,-4.7592125,0.00044087533
0.85858583,0.121212125,-0.00044890866,-0.00013166294,-5.0618153,-8.236558,-6.2154903,0.00046781846
0.85858583,0.16161616,-0.0004822351,-0.00014727563,-6.019706,-9.265285,-7.660068,0.000504223
0.85858583,0.2020202,-0.0005244799,-0.0001644399,-6.9311376,-10.285586,-9.088117,0.0005496541
0.85858583,0.24242425,-0.0005751252,-0.00018314645,-7.8011208,-11.295138,-10.494932,0.00060358236
0.85858583,0.28282827,-0.00063384697,-0.00020338595,-8.634077,-12.291907,-11.875456,0.00066567847
0.85858583,0.32323232,-0.0007002391,-0.00022519194,-9.434842,-13.274313,-13.225343,0.00073555845
0.85858583,0.36363637,-0.0007735193,-0.00024866685,-10.207259,-14.240469,-14.540647,0.00081250677
0.85858583,0.4040404,-0.0008534938,-0.00027363934,-10.955926,-15.189969,-15.817065,0.00089628686
0.85858583,0.44444445,-0.000939358,-0.00030008703,-11.684935,-16.121355,-17.051146,0.0009861266
0.85858583,0.4848485,-0.0010306276,-0.0003280975,-12.397754,-17.035246,-18.239653,0.0010815919
0.85858583,0.5252525,-0.0011266731,-0.0003575459,-13.098545,-17.932064,-19.379337,0.0011820453
0.85858583,0.56565654,-0.0012269244,-0.00038845465,-13.790242,-18.812431,-20.467667,0.00128695
0.85858583,0.6060606,-0.0013305582,-0.0004207734,-14.475764,-19.678421,-21.502377,0.0013955054
0.85858583,0.64646465,-0.0014371797,-0.00045452267,-15.157792,-20.532139,-22.481697,0.0015073408
0.85858583,0.68686867,-0.0015461035,-0.0004895795,-15.8386135,-21.376095,-23.404222,0.0016217658
0.85858583,0.72727275,-0.0016564727,-0.0005259942,-16.519636,-22.213352,-24.26885,0.0017379792
0.85858583,0.7676768,-0.001767911,-0.000563791,-17.201519,-23.046822,-25.07558,0.0018556318
0.85858583,0.8080808,-0.0018797405,-0.0006028209,-17.885248,-23.880728,-25.823967,0.0019740358
0.85858583,0.8484849,-0.001991298,-0.0006433055,-18.570282,-24.718353,-26.515093,0.0020926322
0.85858583,0.8888889,-0.0021020137,-0.00068506785,-19.255724,-25.563171,-27.14959,0.0022108324
0.85858583,0.9292929,-0.0022114813,-0.0007281527,-19.939737,-26.418768,-27.729548,0.0023282731
0.85858583,0.969697,-0.0023190565,-0.0007726867,-20.620197,-27.288773,-28.257017,0.002444395
0.85858583,1.010101,-0.002424281,-0.0008186158,-21.2942,-28.175495,-28.734549,0.0025587634
0.85858583,1.050505,-0.0025266744,-0.0008660089,-21.958076,-29.081318,-29.165741,0.0026709652
0.85858583,1.0909091,-0.0026259162,-0.00091508403,-22.607372,-30.008574,-29.55436,0.0027807937
0.85858583,1.1313131,-0.0027215555,-0.0009657219,-23.236563,-30.957142,-29.904455,0.0028878164
0.85858583,1.1717172,-0.0028133579,-0.0010180529,-23.840778,-31.927757,-30.221237,0.0029918915
0.85858583,1.2121212,-0.0029009767,-0.0010721739,-24.414137,-32.919144,-30.509418,0.0030927693
0.85858583,1.2525252,-0.0029842071,-0.0011281725,-24.951015,-33.930214,-30.774637,0.0031903393
0.85858583,1.2929293,-0.003062982,-0.0011861566,-25.444868,-34.957703,-31.022633,0.003284635
0.85858583,1.3333334,-0.0031369925,-0.0012461096,-25.88931,-35.99742,-31.259518,0.0033754276
0.85858583,1.3737373,-0.003206309,-0.001308227,-26.278532,-37.044556,-31.491533,0.0034629286
0.85858583,1.4141414,-0.003270775,-0.0013725571,-26.607384,-38.094246,-31.724575,0.003547095
0.85858583,1.4545455,-0.0033304356,-0.0014390685,-26.87062,-39.13852,-31.96495,0.0036280463
0.85858583,1.4949495,-0.0033854097,-0.0015079416,-27.064623,-40.170906,-32.21852,0.0037060608
0.85858583,1.5353535,-0.0034355745,-0.0015792008,-27.185066,-41.182343,-32.49093,0.0037811436
0.85858583,1.5757576,-0.003481213,-0.0016526952,-27.231256,-42.16471,-32.78775,0.0038536016
0.85858583,1.6161616,-0.0035223626,-0.001728652,-27.201782,-43.108425,-33.11361,0.0039236816
0.85858583,1.6565657,-0.0035591833,-0.0018068701,-27.097452,-44.00392,-33.47254,0.0039915615
0.85858583,1.6969697,-0.0035917684,-0.0018873923,-26.921259,-44.842392,-33.868607,0.0040574684
0.85858583,1.7373737,-0.0036202855,-0.0019701906,-26.67703,-45.61413,-34.304,0.0041216644
0.85858583,1.7777778,-0.0036449693,-0.002054911,-26.371801,-46.30998,-34.78082,0.0041843113
0.85858583,1.8181819,-0.003665831,-0.0021417215,-26.012249,-46.921696,-35.29995,0.0042456198
0.85858583,1.8585858,-0.0036830418,-0.002230309,-25.60833,-47.44075,-35.861153,0.0043057026
0.85858583,1.8989899,-0.0036968328,-0.0023203846,-25.172342,-47.86048,-36.46349,0.0043647173
0.85858583,1.939394,-0.003707081,-0.0024119355,-24.716629,-48.175007,-37.104294,0.004422656
0.85858583,1.979798,-0.0037138537,-0.0025045536,-24.2563,-48.37933,-37.780262,0.004479453
0.85858583,2.020202,-0.0037171617,-0.0025980528,-23.807447,-48.469433,-38.48681,0.004535104
0.85858583,2.060606,-0.003716927,-0.0026920065,-23.386782,-48.442524,-39.21817,0.004589384
0.85858583,2.10101,-0.0037129782,-0.00278626,-23.012457,-48.297962,-39.967842,0.0046421387
0.85858583,2.1414142,-0.0037052296,-0.00288032,-22.702671,-48.035637,-40.727886,0.004693077
0.85858583,2.1818182,-0.0036933757,-0.0029739588,-22.47614,-47.65718,-41.48976,0.0047418834
0.85858583,2.2222223,-0.0036770515,-0.0030666608,-22.349617,-47.164665,-42.244083,0.004788018
0.85858583,2.2626262,-0.0036560185,-0.0031580385,-22.342052,-46.562866,-42.980915,0.0048311157
0.85858583,2.3030303,-0.0036297515,-0.0032478124,-22.468264,-45.856216,-43.689117,0.0048706653
0.85858583,2.3434343,-0.00359777,-0.0033355244,-22.743526,-45.05115,-44.35803,0.0049060853
0.85858583,2.3838384,-0.003559459,-0.0034207758,-23.179953,-44.154354,-44.976345,0.0049367454
0.85858583,2.4242425,-0.003514234,-0.0035031307,-23.7871,-43.173203,-45.53222,0.004962032
0.85858583,2.4646466,-0.0034615323,-0.00358231,-24.573221,-42.115623,-46.014866,0.004981481
0.85858583,2.5050504,-0.003400389,-0.0036578774,-25.541449,-40.99018,-46.412575,0.004994268
0.85858583,2.5454545,-0.0033302568,-0.0037294868,-26.693497,-39.80556,-46.714947,0.004999968
0.85858583,2.5858586,-0.0032501929,-0.0037968326,-28.025913,-38.569168,-46.91135,0.0049979687
0.85858583,2.6262627,-0.0031593032,-0.0038596038,-29.532255,-37.29041,-46.992443,0.0049877586
0.85858583,2.6666667,-0.003056839,-0.003917521,-31.203333,-35.976692,-46.949444,0.0049690274
0.85858583,2.7070708,-0.00294194,-0.0039703585,-33.02517,-34.63605,-46.774384,0.004941534
0.85858583,2.7474747,-0.0028136559,-0.0040178765,-34.97984,-33.27467,-46.459976,0.0049050986
0.85858583,2.7878788,-0.0026711784,-0.0040599275,-37.0472,-31.899557,-46.000652,0.004859857
0.85858583,2.8282828,-0.002513621,-0.0040963627,-39.203148,-30.516125,-45.391068,0.004806088
0.85858583,2.868687,-0.0023401566,-0.0041271076,-41.420204,-29.128832,-44.62803,0.004744402
0.85858583,2.909091,-0.0021499544,-0.0041521564,-43.669792,-27.742466,-43.708473,0.004675757
0.85858583,2.9494948,-0.0019422434,-0.004171379,-45.920235,-26.359861,-42.630825,0.0046013813
0.85858583,2.989899,-0.0017162934,-0.0041848887,-48.139053,-24.984283,-41.394608,0.0045231576
0.85858583,3.030303,-0.0014714412,-0.004192751,-50.29054,-23.617222,-40.000546,0.0044434555
0.85858583,3.070707,-0.0012070313,-0.004195031,-52.342525,-22.260468,-38.45007,0.004365227
0.85858583,3.1111112,-0.0009226389,-0.004191978,-54.259224,-20.91515,-36.74563,0.004292312
0.85858583,3.1515152,-0.0006175861,-0.0041836873,-56.005173,-19.581408,-34.89002,0.004229025
0.85858583,3.191919,-0.00029145926,-0.0041703843,-57.548183,-18.25955,-32.887524,0.0041805566
0.85858583,3.2323232,5.6084245e-05,-0.0041523147,-58.85411,-16.948595,-30.742542,0.0041526933
0.85858583,3.2727273,0.00042533502,-0.0041299537,-59.89483,-15.649922,-28.460453,0.0041517983
0.85858583,3.3131313,0.00081646815,-0.0041033495,-60.63932,-14.36114,-26.046576,0.0041837897
0.85858583,3.3535354,0.0012298152,-0.0040730126,-61.061623,-13.082248,-23.507175,0.0042546303
0.85858583,3.3939395,0.0016653351,-0.00403931,-61.139656,-11.813122,-20.848297,0.004369138
0.85858583,3.4343433,0.0021231584,-0.0040026084,-60.84979,-10.551676,-18.077036,0.004530858
0.85858583,3.4747474,0.0026032366,-0.0039633904,-60.17473,-9.29834,-15.199646,0.004741867
0.85858583,3.5151515,0.003105536,-0.0039219204,-59.098568,-8.051276,-12.222787,0.0050025806
0.85858583,3.5555556,0.0036298484,-0.0038788244,-57.60894,-6.810189,-9.154049,0.0053123515
0.85858583,3.5959597,0.0041761436,-0.003834419,-55.695072,-5.5739555,-5.999831,0.0056694746
0.85858583,3.6363637,0.0047441013,-0.003789302,-53.351173,-4.34238,-2.7673392,0.0060716807
0.85858583,3.6767676,0.005333502,-0.0037438106,-50.571693,-3.1138265,0.53650093,0.0065163146
0.85858583,3.7171717,0.005944062,-0.0036984812,-47.35522,-1.8875469,3.9050965,0.0070007597
0.85858583,3.7575758,0.0065754093,-0.0036536902,-43.702503,-0.662805,7.3316827,0.0075223306
0.85858583,3.7979798,0.0072273053,-0.0036100373,-39.61421,0.5623431,10.808937,0.008078757
0.85858583,3.838384,0.007899161,-0.0035678744,-35.09721,1.7882384,14.331162,0.008667553
0.85858583,3.878788,0.0085907765,-0.0035276245,-30.1548,3.017663,17.891462,0.00928685
0.85858583,3.9191918,0.009301726,-0.0034898631,-24.795748,4.2520113,21.483248,0.00993485
0.85858583,3.959596,0.010031436,-0.003454866,-19.0294,5.4923453,25.100706,0.010609703
0.85858583,4.0,0.010779586,-0.003423104,-12.865471,6.7418723,28.737608,0.011310045
0.9090909,0.04040404,-0.00041109696,-0.000122739,-2.772637,-6.2814302,-3.7958927,0.00042902865
0.9090909,0.08080808,-0.00042745844,-0.00013604574,-3.8774257,-7.465116,-5.238773,0.00044858572
0.9090909,0.121212125,-0.00045313314,-0.00015115552,-4.9176974,-8.644625,-6.677715,0.00047767942
0.9090909,0.16161616,-0.00048801675,-0.00016805902,-5.8991165,-9.8179455,-8.107455,0.00051614357
0.9090909,0.2020202,-0.0005315654,-0.00018694066,-6.825741,-10.982229,-9.522989,0.00056347897
0.9090909,0.24242425,-0.0005835034,-0.00020767748,-7.7018623,-12.13445,-10.919333,0.0006193595
0.9090909,0.28282827,-0.00064337254,-0.0002302602,-8.531829,-13.271785,-12.291884,0.00068333594
0.9090909,0.32323232,-0.00071075186,-0.0002547335,-9.320542,-14.392453,-13.636202,0.0007550214
0.9090909,0.36363637,-0.0007851161,-0.00028122403,-10.071976,-15.493983,-14.94811,0.000833963
0.9090909,0.4040404,-0.0008659288,-0.00030956417,-10.790725,-16.574657,-16.223652,0.0009195992
0.9090909,0.44444445,-0.00095267966,-0.0003397949,-11.48073,-17.633326,-17.459276,0.0010114638
0.9090909,0.4848485,-0.0010448135,-0.0003718827,-12.146818,-18.669355,-18.65169,0.001109023
0.9090909,0.5252525,-0.0011416487,-0.00040577725,-12.792249,-19.682442,-19.797709,0.0012116175
0.9090909,0.56565654,-0.0012426525,-0.0004414376,-13.421109,-20.672981,-20.894892,0.0013187315
0.9090909,0.6060606,-0.0013471507,-0.00047887862,-14.037046,-21.642107,-21.941107,0.001429734
0.9090909,0.64646465,-0.0014545508,-0.0005180575,-14.643564,-22.591724,-22.934126,0.0015440535
0.9090909,0.68686867,-0.0015642121,-0.00055890344,-15.243604,-23.524042,-23.872717,0.0016610638
0.9090909,0.72727275,-0.0016753934,-0.0006013699,-15.8389845,-24.440762,-24.755825,0.0017800531
0.9090909,0.7676768,-0.0017877072,-0.00064537115,-16.432129,-25.345884,-25.583225,0.0019006318
0.9090909,0.8080808,-0.0019002669,-0.0006910693,-17.0247,-26.242548,-26.354355,0.0020220263
0.9090909,0.8484849,-0.0020126961,-0.00073827617,-17.617632,-27.134531,-27.069847,0.0021438277
0.9090909,0.8888889,-0.0021243095,-0.0007870514,-18.210928,-28.025396,-27.730738,0.0022654228
0.9090909,0.9292929,-0.0022345,-0.0008374043,-18.804571,-28.919432,-28.338293,0.0023862598
0.9090909,0.969697,-0.0023428798,-0.0008893851,-19.397448,-29.820093,-28.894453,0.0025060112
0.9090909,1.010101,-0.002448883,-0.0009428952,-19.987555,-30.730347,-29.401686,0.002624134
0.9090909,1.050505,-0.002551999,-0.00099805,-20.573181,-31.654402,-29.863068,0.0027402195
0.9090909,1.0909091,-0.002651859,-0.0010548458,-21.150202,-32.593758,-30.281878,0.0028539544
0.9090909,1.1313131,-0.0027480908,-0.0011133719,-21.716078,-33.551136,-30.66205,0.002965063
0.9090909,1.1717172,-0.0028403513,-0.0011737328,-22.266197,-34.527912,-31.007965,0.0030733116
0.9090909,1.2121212,-0.0029283948,-0.0012358967,-22.795557,-35.52441,-31.324442,0.0031785117
0.9090909,1.2525252,-0.0030119494,-0.0013000127,-23.299313,-36.540195,-31.616821,0.003280529
0.9090909,1.2929293,-0.0030907579,-0.0013661571,-23.772274,-37.57399,-31.890198,0.0033792262
0.9090909,1.3333334,-0.0031647868,-0.0014342628,-24.20841,-38.62302,-32.150444,0.0034746202
0.9090909,1.3737373,-0.003233917,-0.0015045982,-24.6026,-39.684605,-32.40365,0.0035667962
0.9090909,1.4141414,-0.0032980628,-0.0015771855,-24.949642,-40.75439,-32.65556,0.0036557806
0.9090909,1.4545455,-0.0033572093,-0.0016519818,-25.244038,-41.826485,-32.91216,0.0037416439
0.9090909,1.4949495,-0.0034113973,-0.0017292108,-25.481874,-42.894993,-33.179546,0.003824631
0.9090909,1.5353535,-0.003460668,-0.0018087737,-25.659803,-43.952953,-33.46305,0.0039048542
0.9090909,1.5757576,-0.0035052411,-0.0018907469,-25.77473,-44.992397,-33.768654,0.0039826673
0.9090909,1.6161616,-0.003545124,-0.0019751862,-25.824167,-46.004284,-34.101273,0.0040582344
0.9090909,1.6565657,-0.003580492,-0.0020620152,-25.809284,-46.980976,-34.465115,0.004131807
0.9090909,1.6969697,-0.0036115348,-0.002151277,-25.730835,-47.912724,-34.864426,0.00420371
0.9090909,1.7373737,-0.0036384165,-0.002242826,-25.591024,-48.789837,-35.30207,0.0042741485
0.9090909,1.7777778,-0.0036612973,-0.0023366734,-25.394854,-49.603577,-35.780983,0.004343402
0.9090909,1.8181819,-0.0036803782,-0.0024326127,-25.148643,-50.344757,-36.30236,0.004411665
0.9090909,1.8585858,-0.003695812,-0.0025305822,-24.859358,-51.00484,-36.866642,0.00447916
0.9090909,1.8989899,-0.0037077554,-0.0026303604,-24.538145,-51.575638,-37.473663,0.004546014
0.9090909,1.939394,-0.0037162416,-0.002731774,-24.19587,-52.04979,-38.121296,0.0046122707
0.9090909,1.979798,-0.0037213452,-0.002834633,-23.845512,-52.421307,-38.807144,0.0046779863
0.9090909,2.020202,-0.003723178,-0.0029386245,-23.501999,-52.68453,-39.527412,0.00474316
0.9090909,2.060606,-0.003721729,-0.0030434355,-23.181458,-52.83543,-40.277065,0.0048076776
0.9090909,2.10101,-0.0037168674,-0.0031488054,-22.900778,-52.870766,-41.04997,0.0048713526
0.9090909,2.1414142,-0.003708575,-0.0032543782,-22.677242,-52.78859,-41.838726,0.004934015
0.9090909,2.1818182,-0.00369649,-0.0033597574,-22.529066,-52.588593,-42.63552,0.0049951985
0.9090909,2.2222223,-0.003680475,-0.003464738,-22.474243,-52.2714,-43.431084,0.005054731
0.9090909,2.2626262,-0.0036601648,-0.0035687014,-22.531502,-51.83962,-44.21499,0.005111989
0.9090909,2.3030303,-0.003635224,-0.0036712922,-22.716059,-51.2953,-44.97723,0.00516655
0.9090909,2.3434343,-0.0036050864,-0.0037723072,-23.04519,-50.64412,-45.706604,0.005217945
0.9090909,2.3838384,-0.0035692789,-0.0038711037,-23.530888,-49.889584,-46.39112,0.005265472
0.9090909,2.4242425,-0.00352728,-0.0039672945,-24.186752,-49.038765,-47.01892,0.0053085904
0.9090909,2.4646466,-0.0034782626,-0.004060542,-25.021646,-48.098167,-47.57799,0.005346617
0.9090909,2.5050504,-0.003421586,-0.00415045,-26.041101,-47.074635,-48.056496,0.005378986
0.9090909,2.5454545,-0.0033565424,-0.0042364653,-27.249432,-45.975708,-48.442734,0.0054049995
0.9090909,2.5858586,-0.0032823049,-0.00431842,-28.645723,-44.809086,-48.725193,0.0054242304
0.9090909,2.6262627,-0.0031977408,-0.004395874,-30.22491,-43.581627,-48.893047,0.0054359226
0.9090909,2.6666667,-0.0031022392,-0.004468454,-31.980217,-42.301464,-48.936382,0.0054397583
0.9090909,2.7070708,-0.002994839,-0.0045359433,-33.89968,-40.975418,-48.845875,0.005435425
0.9090909,2.7474747,-0.0028744973,-0.004598029,-35.967346,-39.610336,-48.612816,0.005422601
0.9090909,2.7878788,-0.0027404018,-0.004654469,-38.164005,-38.212097,-48.230366,0.0054012854
0.9090909,2.8282828,-0.0025915094,-0.0047051366,-40.46509,-36.78566,-47.69189,0.0053716134
0.9090909,2.868687,-0.0024269372,-0.004749736,-42.845253,-35.33621,-46.992382,0.0053338557
0.9090909,2.909091,-0.0022457913,-0.0047883354,-45.274418,-33.867725,-46.127968,0.005288831
0.9090909,2.9494948,-0.0020471066,-0.004820643,-47.72005,-32.3831,-45.095783,0.005237294
0.9090909,2.989899,-0.0018301979,-0.0048467405,-50.14827,-30.885578,-43.89425,0.0051807836
0.9090909,3.030303,-0.0015941933,-0.004866697,-52.52299,-29.376837,-42.5229,0.0051211515
0.9090909,3.070707,-0.0013382994,-0.00488046,-54.805576,-27.85765,-40.982765,0.0050606257
0.9090909,3.1111112,-0.0010619871,-0.0048881546,-56.959545,-26.329386,-39.275043,0.0050021866
0.9090909,3.1515152,-0.0007645227,-0.004889939,-58.94648,-24.792595,-37.403065,0.0049493434
0.9090909,3.191919,-0.00044537708,-0.004885899,-60.727837,-23.24635,-35.36953,0.004906156
0.9090909,3.2323232,-0.00010409579,-0.004876403,-62.268196,-21.691572,-33.179203,0.004877514
0.9090909,3.2727273,0.00025968254,-0.004861515,-63.532322,-20.126938,-30.83699,0.0048684455
0.9090909,3.3131313,0.0006463863,-0.004841676,-64.48597,-18.552309,-28.348871,0.0048846332
0.9090909,3.3535354,0.0010562874,-0.004817093,-65.097595,-16.966167,-25.720514,0.004931544
0.9090909,3.3939395,0.0014894418,-0.004788203,-65.33943,-15.368854,-22.95886,0.0050145118
0.9090909,3.4343433,0.0019460618,-0.0047553144,-65.18695,-13.759926,-20.070204,0.00513811
0.9090909,3.4747474,0.0024261512,-0.004718825,-64.61502,-12.138157,-17.061903,0.005305989
0.9090909,3.5151515,0.002929788,-0.004679214,-63.60645,-10.504083,-13.941523,0.005520752
0.9090909,3.5555556,0.0034567304,-0.0046368353,-62.14426,-8.85744,-10.716263,0.005783531
0.9090909,3.5959597,0.004007008,-0.0045922156,-60.21475,-7.1977005,-7.3934994,0.0060946336
0.9090909,3.6363637,0.004580397,-0.00454575,-57.808933,-5.525511,-3.9807591,0.006453207
0.9090909,3.6767676,0.0051765367,-0.0044979304,-54.919292,-3.840322,-0.48534444,0.00685769
0.9090909,3.7171717,0.0057952665,-0.004449405,-51.543793,-2.1435573,3.0847824,0.0073063206
0.9090909,3.7575758,0.0064362176,-0.004400367,-47.680565,-0.43478602,6.7232537,0.007796674
0.9090909,3.7979798,0.0070990287,-0.0043514986,-43.331715,1.2856684,10.422441,0.008326569
0.9090909,3.838384,0.0077833496,-0.0043031983,-38.501034,3.0178225,14.175125,0.008893709
0.9090909,3.878788,0.008488733,-0.00425593,-33.1957,4.761089,17.974863,0.009495869
0.9090909,3.9191918,0.009214688,-0.0042102654,-27.422983,6.5163703,21.814123,0.010130983
0.9090909,3.959596,0.009960812,-0.004166536,-21.19375,8.283215,25.687105,0.01079712
0.9090909,4.0,0.010726664,-0.0041252784,-14.519176,10.062581,29.586668,0.011492574
0.9595959,0.04040404,-0.00041088834,-0.0001425147,-2.4819727,-6.3937635,-4.2887325,0.00043490191
0.9595959,0.08080808,-0.00042897835,-0.00015662424,-3.6235127,-7.720049,-5.7090597,0.00045667667
0.9595959,0.121212125,-0.00045631826,-0.00017279759,-4.694645,-9.042918,-7.1272583,0.00048793992
0.9595959,0.16161616,-0.0004925318,-0.00019108132,-5.6984506,-10.358992,-8.53808,0.00052829884
0.9595959,0.2020202,-0.0005372949,-0.00021160021,-6.640173,-11.66593,-9.936558,0.00057746033
0.9595959,0.24242425,-0.0005903356,-0.00023432635,-7.52329,-12.959556,-11.3176,0.0006351417
0.9595959,0.28282827,-0.0006511323,-0.00025932863,-8.352381,-14.237626,-12.676643,0.0007008742
0.9595959,0.32323232,-0.00071939826,-0.00028659403,-9.131428,-15.496753,-14.00951,0.0007743836
0.9595959,0.36363637,-0.00079445913,-0.00031613559,-9.865463,-16.734776,-15.311736,0.00085504795
0.9595959,0.4040404,-0.0008760281,-0.00034791604,-10.558896,-17.949272,-16.579603,0.00094258727
0.9595959,0.44444445,-0.00096335635,-0.00038195215,-11.215529,-19.138083,-17.809505,0.0010363122
0.9595959,0.4848485,-0.0010560006,-0.0004181601,-11.839972,-20.300247,-18.998165,0.0011357795
0.9595959,0.5252525,-0.0011532865,-0.00045659207,-12.436915,-21.435242,-20.142708,0.0012403815
0.9595959,0.56565654,-0.0012547337,-0.0004970711,-13.010194,-22.542318,-21.24044,0.001349606
0.9595959,0.6060606,-0.0013596974,-0.0005397275,-13.564388,-23.62249,-22.289213,0.0014629022
0.9595959,0.64646465,-0.0014675856,-0.0005843993,-14.102573,-24.676193,-23.287281,0.0015796613
0.9595959,0.68686867,-0.0015776008,-0.0006310493,-14.628695,-25.705292,-24.233128,0.0016991313
0.9595959,0.72727275,-0.0016893223,-0.00067965686,-15.146281,-26.712404,-25.125761,0.0018209183
0.9595959,0.7676768,-0.0018019862,-0.0007301606,-15.657724,-27.699629,-25.964554,0.0019442965
0.9595959,0.8080808,-0.0019150488,-0.00078253075,-16.166143,-28.670372,-26.749466,0.0020687596
0.9595959,0.8484849,-0.0020279437,-0.00083674863,-16.672998,-29.628227,-27.480791,0.0021937876
0.9595959,0.8888889,-0.0021401085,-0.00089272857,-17.179873,-30.576986,-28.159143,0.002318842
0.9595959,0.9292929,-0.0022507422,-0.00095056,-17.687452,-31.519987,-28.78605,0.0024432365
0.9595959,0.969697,-0.002359558,-0.0010101125,-18.195995,-32.462044,-29.363052,0.002566679
0.9595959,1.010101,-0.0024659894,-0.0010714345,-18.705162,-33.40631,-29.89238,0.002688694
0.9595959,1.050505,-0.002569627,-0.0011346042,-19.213953,-34.35729,-30.376764,0.0028089695
0.9595959,1.0909091,-0.0026699156,-0.001199523,-19.720297,-35.31775,-30.819307,0.0029269957
0.9595959,1.1313131,-0.002766464,-0.0012663025,-20.221489,-36.29072,-31.223616,0.0030425063
0.9595959,1.1717172,-0.0028591007,-0.0013349298,-20.714907,-37.27873,-31.593893,0.0031553912
0.9595959,1.2121212,-0.0029473603,-0.0014055185,-21.19681,-38.283028,-31.934515,0.0032653352
0.9595959,1.2525252,-0.0030310005,-0.0014781207,-21.663105,-39.30535,-32.250153,0.0033722108
0.9595959,1.2929293,-0.0031098947,-0.0015527345,-22.10971,-40.345,-32.54604,0.003475979
0.9595959,1.3333334,-0.0031838752,-0.0016295146,-22.531492,-41.401443,-32.827454,0.0035766435
0.9595959,1.3737373,-0.0032527745,-0.0017083716,-22.923225,-42.47234,-33.100285,0.0036741088
0.9595959,1.4141414,-0.0033165626,-0.0017895196,-23.28022,-43.554924,-33.370106,0.0037685498
0.9595959,1.4545455,-0.0033752546,-0.001872981,-23.597933,-44.646114,-33.64285,0.0038601037
0.9595959,1.4949495,-0.0034288242,-0.0019588675,-23.871809,-45.740246,-33.924393,0.0039489237
0.9595959,1.5353535,-0.003477335,-0.0020471457,-24.097958,-46.831696,-34.220085,0.004035178
0.9595959,1.5757576,-0.0035209768,-0.0021378119,-24.272926,-47.9137,-34.53578,0.004119165
0.9595959,1.6161616,-0.0035596825,-0.0022310503,-24.394884,-48.979183,-34.87637,0.0042010625
0.9595959,1.6565657,-0.0035938285,-0.0023266915,-24.462036,-50.01966,-35.24695,0.0042812494
0.9595959,1.6969697,-0.0036234744,-0.002424838,-24.474995,-51.027252,-35.651295,0.004359978
0.9595959,1.7373737,-0.0036489405,-0.002525404,-24.43507,-51.992466,-36.09361,0.0044376156
0.9595959,1.7777778,-0.0036702566,-0.0026283227,-24.344938,-52.90605,-36.576157,0.0045142956
0.9595959,1.8181819,-0.00368765,-0.0027335882,-24.209257,-53.75949,-37.101437,0.004590345
0.9595959,1.8585858,-0.0037014224,-0.0028410014,-24.035116,-54.54357,-37.670216,0.0046660276
0.9595959,1.8989899,-0.0037116744,-0.0029503815,-23.829344,-55.249264,-38.283115,0.0047414424
0.9595959,1.939394,-0.0037186034,-0.003061721,-23.602556,-55.8688,-38.939007,0.004816861
0.9595959,1.979798,-0.0037222542,-0.0031746533,-23.366188,-56.394382,-39.63594,0.004892198
0.9595959,2.020202,-0.0037227534,-0.0032890048,-23.13365,-56.81998,-40.370663,0.004967539
0.9595959,2.060606,-0.0037201531,-0.0034044683,-22.919249,-57.138916,-41.13901,0.005042811
0.9595959,2.10101,-0.0037144758,-0.0035208687,-22.738045,-57.347008,-41.935673,0.0051179924
0.9595959,2.1414142,-0.0037055276,-0.0036377776,-22.608418,-57.440784,-42.75379,0.0051927217
0.9595959,2.1818182,-0.0036933385,-0.0037548095,-22.547165,-57.417534,-43.586056,0.0052668154
0.9595959,2.2222223,-0.0036774985,-0.0038717482,-22.57147,-57.27627,-44.423294,0.0053398907
0.9595959,2.2626262,-0.0036580078,-0.003988033,-22.700344,-57.016777,-45.256496,0.005411601
0.9595959,2.3030303,-0.003634315,-0.0041034445,-22.950447,-56.640953,-46.074806,0.005481469
0.9595959,2.3434343,-0.0036060177,-0.004217351,-23.33827,-56.150246,-46.866924,0.005548821
0.9595959,2.3838384,-0.0035726875,-0.0043295044,-23.87975,-55.548763,-47.62126,0.0056132614
0.9595959,2.4242425,-0.0035337545,-0.004439367,-24.587448,-54.840523,-48.32546,0.005674099
0.9595959,2.4646466,-0.003488537,-0.004546564,-25.472614,-54.03049,-48.967117,0.0057307184
0.9595959,2.5050504,-0.0034363829,-0.0046506245,-26.544758,-53.124584,-49.53349,0.0057824766
0.9595959,2.5454545,-0.0033765174,-0.004751064,-27.808243,-52.128635,-50.01212,0.005828677
0.9595959,2.5858586,-0.0033080094,-0.004847616,-29.264843,-51.04943,-50.390774,0.0058687567
0.9595959,2.6262627,-0.003229998,-0.0049397126,-30.914785,-49.89373,-50.657196,0.0059020035
0.9595959,2.6666667,-0.003141649,-0.005027106,-32.749775,-48.66753,-50.800213,0.005928048
0.9595959,2.7070708,-0.0030419938,-0.005109342,-34.7625,-47.37764,-50.8092,0.005946352
0.9595959,2.7474747,-0.0029300563,-0.005186215,-36.93811,-46.029873,-50.674393,0.005956682
0.9595959,2.7878788,-0.002804663,-0.00525734,-39.257942,-44.62982,-50.386845,0.005958671
0.9595959,2.8282828,-0.002664905,-0.0053224936,-41.70104,-43.18248,-49.93901,0.0059523657
0.9595959,2.868687,-0.0025098212,-0.0053813197,-44.24218,-41.692833,-49.324116,0.005937828
0.9595959,2.909091,-0.00233832,-0.0054338425,-46.84943,-40.162987,-48.53694,0.0059156055
0.9595959,2.9494948,-0.0021494627,-0.0054797884,-49.49348,-38.59853,-47.57323,0.005886278
0.9595959,2.989899,-0.0019423924,-0.0055190884,-52.134693,-36.999138,-46.430275,0.0058509167
0.9595959,3.030303,-0.0017160699,-0.0055515803,-54.738857,-35.368114,-45.106228,0.005810761
0.9595959,3.070707,-0.0014696233,-0.0055774413,-57.263298,-33.70524,-43.601433,0.005767811
0.9595959,3.1111112,-0.0012024455,-0.0055965707,-59.66829,-32.011517,-41.91607,0.0057242885
0.9595959,3.1515152,-0.0009135641,-0.0056090374,-61.912502,-30.287167,-40.052048,0.005682948
0.9595959,3.191919,-0.0006024726,-0.0056149866,-63.95375,-28.531681,-38.012707,0.005647216
0.9595959,3.2323232,-0.00026848912,-0.0056145936,-65.75124,-26.744442,-35.801926,0.0056210095
0.9595959,3.2727273,8.895993e-05,-0.0056080613,-67.263435,-24.923868,-33.424088,0.005608767
0.9595959,3.3131313,0.0004700832,-0.005595565,-68.45381,-23.070036,-30.885073,0.005615276
0.9595959,3.3535354,0.0008754097,-0.005577376,-69.285065,-21.181673,-28.190823,0.0056456593
0.9595959,3.3939395,0.0013052262,-0.0055539887,-69.72412,-19.258858,-25.348145,0.005705296
0.9595959,3.4343433,0.0017597303,-0.0055254065,-69.737854,-17.299145,-22.364016,0.0057988595
0.9595959,3.4747474,0.002239082,-0.005492395,-69.30046,-15.303971,-19.245935,0.005931264
0.9595959,3.5151515,0.0027432106,-0.0054549985,-68.38743,-13.272646,-16.00167,0.006105916
0.9595959,3.5555556,0.003272187,-0.005413899,-66.97757,-11.205243,-12.638884,0.0063259397
0.9595959,3.5959597,0.0038258992,-0.0053693615,-65.054504,-9.102917,-9.165601,0.006592992
0.9595959,3.6363637,0.0044041015,-0.005321946,-62.604763,-6.966075,-5.589988,0.00690791
0.9595959,3.6767676,0.0050067566,-0.0052721985,-59.618404,-4.796064,-1.9201759,0.0072707417
0.9595959,3.7171717,0.0056335144,-0.0052204,-56.08892,-2.5940428,1.8368618,0.007680434
0.9595959,3.7575758,0.006284047,-0.0051671863,-52.015102,-0.3617785,5.672206,0.008135666
0.9595959,3.7979798,0.006958008,-0.0051130485,-47.39674,1.8987999,9.578753,0.008634647
0.9595959,3.838384,0.007655006,-0.005058471,-42.237297,4.1862335,13.548712,0.009175361
0.9595959,3.878788,0.008374605,-0.0050039515,-36.54283,6.4991097,17.574745,0.009755693
0.9595959,3.9191918,0.009116251,-0.004949985,-30.323624,8.834628,21.649473,0.010373446
0.9595959,3.959596,0.009879496,-0.0048970934,-23.588919,11.192164,25.765728,0.011026602
0.9595959,4.0,0.010663878,-0.004845759,-16.35268,13.569794,29.916695,0.011713226
1.010101,0.04040404,-0.0004094951,-0.00016417727,-2.1253767,-6.505673,-4.764204,0.0004411807
1.010101,0.08080808,-0.00042927638,-0.00017910823,-3.3003395,-7.970768,-6.159267,0.00046514295
1.010101,0.121212125,-0.00045810267,-0.0001964271,-4.398304,-9.432829,-7.55364,0.00049843924
1.010101,0.16161616,-0.0004956238,-0.00021615066,-5.4231076,-10.888129,-8.941838,0.000540707
1.010101,0.2020202,-0.0005415268,-0.00023841113,-6.37872,-12.333825,-10.319085,0.000591685
1.010101,0.24242425,-0.00059554353,-0.00026323274,-7.2689133,-13.7662525,-11.68048,0.00065112486
1.010101,0.28282827,-0.0006570928,-0.00029064342,-8.098015,-15.182076,-13.021123,0.0007185016
1.010101,0.32323232,-0.0007259138,-0.0003206618,-8.870313,-16.5783,-14.336896,0.0007935835
1.010101,0.36363637,-0.00080158934,-0.00035328232,-9.589862,-17.951595,-15.623672,0.00087598735
1.010101,0.4040404,-0.0008834861,-0.00038849004,-10.261325,-19.299444,-16.877625,0.00096512807
1.010101,0.44444445,-0.0009711161,-0.0004263334,-10.889541,-20.619566,-18.095009,0.0010605785
1.010101,0.4848485,-0.0010640398,-0.000466628,-11.478517,-21.90999,-19.272888,0.0011618616
1.010101,0.5252525,-0.0011615567,-0.0005096346,-12.033031,-23.169538,-20.408411,0.0012684405
1.010101,0.56565654,-0.0012631603,-0.00055492483,-12.557611,-24.397177,-21.49887,0.0013796794
1.010101,0.6060606,-0.0013681613,-0.00060276315,-13.056361,-25.593021,-22.54241,0.0014950548
1.010101,0.64646465,-0.0014761463,-0.00065299124,-13.534267,-26.757566,-23.53705,0.0016141268
1.010101,0.68686867,-0.0015862845,-0.0007055532,-13.995158,-27.89198,-24.48162,0.0017361175
1.010101,0.72727275,-0.0016980991,-0.0007603057,-14.442549,-28.996958,-25.375008,0.001860539
1.010101,0.7676768,-0.0018108077,-0.00081733987,-14.880611,-30.075699,-26.216595,0.0019867232
1.010101,0.8080808,-0.0019240379,-0.000876436,-15.3124075,-31.13083,-27.006432,0.0021142522
1.010101,0.8484849,-0.0020370483,-0.000937704,-15.740602,-32.164875,-27.744627,0.0022425107
1.010101,0.8888889,-0.002149243,-0.0010010451,-16.168314,-33.18232,-28.431967,0.0023709356
1.010101,0.9292929,-0.0022600964,-0.0010664389,-16.596024,-34.186005,-29.069662,0.0024990654
1.010101,0.969697,-0.002369091,-0.0011337865,-17.026058,-35.18068,-29.659319,0.0026264165
1.010101,1.010101,-0.0024757124,-0.0012031384,-17.458776,-36.170116,-30.202862,0.0027525795
1.010101,1.050505,-0.0025794394,-0.0012744404,-17.89411,-37.158524,-30.702965,0.0028771004
1.010101,1.0909091,-0.0026799403,-0.0013476945,-18.331726,-38.149616,-31.162323,0.0029997267
1.010101,1.1313131,-0.0027767383,-0.0014229156,-18.769926,-39.146797,-31.584532,0.0031200903
1.010101,1.1717172,-0.0028694011,-0.0015001725,-19.206915,-40.153397,-31.973104,0.0032378975
1.010101,1.2121212,-0.0029577464,-0.0015794802,-19.640488,-41.17269,-32.332535,0.0033530616
1.010101,1.2525252,-0.0030415095,-0.0016607307,-20.067293,-42.205463,-32.666878,0.0034653724
1.010101,1.2929293,-0.0031202845,-0.0017442107,-20.484133,-43.25425,-32.981403,0.0035746952
1.010101,1.3333334,-0.0031941123,-0.0018298179,-20.886469,-44.318153,-33.28108,0.0036811123
1.010101,1.3737373,-0.0032628179,-0.0019176006,-21.270481,-45.397617,-33.571228,0.0037845967
1.010101,1.4141414,-0.003326241,-0.0020076893,-21.631605,-46.490875,-33.857204,0.003885189
1.010101,1.4545455,-0.0033844523,-0.0021001007,-21.965477,-47.595116,-34.14487,0.003983082
1.010101,1.4949495,-0.0034374706,-0.0021948926,-22.268177,-48.70787,-34.440002,0.0040784506
1.010101,1.5353535,-0.0034853108,-0.002292063,-22.535461,-49.823948,-34.747883,0.0041714436
1.010101,1.5757576,-0.0035280809,-0.0023918077,-22.76304,-50.937687,-35.07414,0.0042624054
1.010101,1.6161616,-0.0035659187,-0.002493985,-22.950094,-52.044334,-35.423763,0.004351521
1.010101,1.6565657,-0.0035989955,-0.0025987066,-23.092733,-53.13541,-35.80221,0.004439149
1.010101,1.6969697,-0.0036275052,-0.0027059764,-23.190813,-54.203915,-36.21347,0.004525605
1.010101,1.7373737,-0.0036515556,-0.0028156824,-23.24498,-55.241356,-36.66151,0.0046110656
1.010101,1.7777778,-0.0036715306,-0.002927933,-23.256683,-56.23935,-37.149757,0.004696055
1.010101,1.8181819,-0.003687527,-0.0030425154,-23.229767,-57.18939,-37.680218,0.0047806646
1.010101,1.8585858,-0.0036997944,-0.003159454,-23.167204,-58.08116,-38.255505,0.0048652473
1.010101,1.8989899,-0.0037086383,-0.0032785013,-23.076948,-58.90665,-38.875767,0.004950007
1.010101,1.939394,-0.003714133,-0.0033996813,-22.966913,-59.65743,-39.540993,0.005035138
1.010101,1.979798,-0.0037164465,-0.0035226904,-22.846869,-60.324326,-40.249626,0.005120676
1.010101,2.020202,-0.0037157312,-0.0036473516,-22.728107,-60.90006,-40.999924,0.00520671
1.010101,2.060606,-0.0037121475,-0.0037733875,-22.624289,-61.377728,-41.787773,0.0052932496
1.010101,2.10101,-0.0037056282,-0.003900582,-22.54981,-61.751495,-42.60869,0.005380169
1.010101,2.1414142,-0.0036962181,-0.004028652,-22.51996,-62.01583,-43.456562,0.0054673636
1.010101,2.1818182,-0.00368388,-0.004157193,-22.552042,-62.16619,-44.324913,0.005554568
1.010101,2.2222223,-0.0036683641,-0.0042859297,-22.662626,-62.200275,-45.20487,0.005641462
1.010101,2.2626262,-0.003649585,-0.004414374,-22.870897,-62.116344,-46.08788,0.0057276664
1.010101,2.3030303,-0.0036271363,-0.004542215,-23.193163,-61.912907,-46.963364,0.00581273
1.010101,2.3434343,-0.0036006533,-0.004669005,-23.646019,-61.59078,-47.82038,0.005896127
1.010101,2.3838384,-0.003569793,-0.004794374,-24.247534,-61.152084,-48.64746,0.0059774113
1.010101,2.4242425,-0.003533896,-0.0049177427,-25.010468,-60.598083,-49.431705,0.006055792
1.010101,2.4646466,-0.0034924857,-0.005038712,-25.948854,-59.93286,-50.16084,0.0061307484
1.010101,2.5050504,-0.0034448095,-0.005156869,-27.073503,-59.16095,-50.82129,0.0062016137
1.010101,2.5454545,-0.0033900365,-0.0052717496,-28.390844,-58.286076,-51.40026,0.0062676705
1.010101,2.5858586,-0.0033274554,-0.0053828135,-29.906422,-57.314102,-51.883892,0.0063282414
1.010101,2.6262627,-0.0032561831,-0.00548969,-31.621218,-56.250477,-52.25966,0.0063827443
1.010101,2.6666667,-0.003175158,-0.005591981,-33.531822,-55.100567,-52.51511,0.006430543
1.010101,2.7070708,-0.0030833595,-0.005689224,-35.630592,-53.869293,-52.638073,0.0064710416
1.010101,2.7474747,-0.002979964,-0.005781101,-37.907433,-52.563087,-52.61747,0.006503946
1.010101,2.7878788,-0.0028636865,-0.005867187,-40.345215,-51.1861,-52.442936,0.0065287505
1.010101,2.8282828,-0.0027335696,-0.005947128,-42.924706,-49.74314,-52.104984,0.0065452834
1.010101,2.868687,-0.0025884584,-0.0060207862,-45.619503,-48.237343,-51.595966,0.006553624
1.010101,2.909091,-0.0024272837,-0.006087687,-48.402416,-46.672726,-50.908535,0.00655375
1.010101,2.9494948,-0.0022489652,-0.00614783,-51.24104,-45.0519,-50.037277,0.0065462706
1.010101,2.989899,-0.0020523742,-0.006200835,-54.098145,-43.375973,-48.977898,0.006531661
1.010101,3.030303,-0.0018366873,-0.0062467717,-56.934956,-41.646606,-47.727245,0.0065111886
1.010101,3.070707,-0.0016006008,-0.0062853843,-59.709312,-39.863865,-46.284184,0.0064859833
1.010101,3.1111112,-0.0013434701,-0.006316742,-62.37729,-38.027824,-44.64803,0.006458029
1.010101,3.1515152,-0.0010642074,-0.006340733,-64.89354,-36.137295,-42.819775,0.006429419
1.010101,3.191919,-0.0007622354,-0.006357558,-67.21411,-34.192425,-40.80219,0.006403089
1.010101,3.2323232,-0.00043664873,-0.0063671973,-69.29098,-32.19103,-38.598057,0.006382152
1.010101,3.2727273,-8.6940825e-05,-0.006369848,-71.08145,-30.132444,-36.21172,0.006370441
1.010101,3.3131313,0.00028754398,-0.0063656513,-72.539055,-28.014143,-33.6486,0.0063721426
1.010101,3.3535354,0.00068735704,-0.0063548256,-73.6219,-25.834866,-30.914404,0.006391891
1.010101,3.3939395,0.0011127554,-0.006337758,-74.290924,-23.593695,-28.016264,0.0064347032
1.010101,3.4343433,0.0015641488,-0.006314559,-74.508286,-21.289434,-24.961105,0.006505399
1.010101,3.4747474,0.0020416416,-0.0062856637,-74.24172,-18.92177,-21.756924,0.0066089234
1.010101,3.5151515,0.00254542,-0.0062514544,-73.45986,-16.490377,-18.411688,0.006749803
1.010101,3.5555556,0.0030756183,-0.0062122904,-72.1372,-13.995681,-14.933569,0.0069319536
1.010101,3.5959597,0.0036321618,-0.0061686393,-70.25049,-11.437679,-11.331361,0.007158541
1.010101,3.6363637,0.0042148493,-0.006120909,-67.78319,-8.818835,-7.6131644,0.0074317213
1.010101,3.6767676,0.0048235506,-0.0060695987,-64.72112,-6.1403465,-3.7881584,0.0077528493
1.010101,3.7171717,0.0054581203,-0.0060152058,-61.055138,-3.4047954,0.13586205,0.008122425
1.010101,3.7575758,0.0061181523,-0.0059582014,-56.778538,-0.61421955,4.1502023,0.00854002
1.010101,3.7979798,0.0068032816,-0.0058990866,-51.892097,2.227187,8.246353,0.009004658
1.010101,3.838384,0.007513214,-0.0058384873,-46.39535,5.1175127,12.416049,0.009515057
1.010101,3.878788,0.008247409,-0.0057767276,-40.29514,8.052388,16.65203,0.010069277
1.010101,3.9191918,0.009005431,-0.0057144836,-33.60101,11.028101,20.945774,0.01066551
1.010101,3.959596,0.0097865425,-0.005652262,-26.324474,14.04093,25.289932,0.011301525
1.010101,4.0,0.01059046,-0.005590519,-18.479359,17.087627,29.677214,0.011975464
1.060606,0.04040404,-0.00040678307,-0.00018776953,-1.7119582,-6.6217217,-5.212217,0.00044802888
1.060606,0.08080808,-0.0004281886,-0.00020358153,-2.9159944,-8.220599,-6.579394,0.0004741212
1.060606,0.121212125,-0.00045843795,-0.00022200681,-4.037576,-9.816178,-7.946751,0.0005093647
1.060606,0.16161616,-0.00049708784,-0.00024319813,-5.0811586,-11.405884,-9.309159,0.00055339106
1.060606,0.2020202,-0.00054399297,-0.0002672337,-6.049131,-12.985445,-10.661531,0.0006060876
1.060606,0.24242425,-0.00059869885,-0.00029414706,-6.9458256,-14.551714,-11.998874,0.00066705537
1.060606,0.28282827,-0.00066094846,-0.00032401085,-7.7753325,-16.101164,-13.316722,0.000736095
1.060606,0.32323232,-0.0007302202,-0.0003567487,-8.542089,-17.630566,-14.610643,0.0008127061
1.060606,0.36363637,-0.00080608204,-0.00039246306,-9.249627,-19.136198,-15.876569,0.0008965464
1.060606,0.4040404,-0.00088819116,-0.00043110922,-9.90298,-20.615234,-17.110731,0.0009872885
1.060606,0.44444445,-0.0009758808,-0.0004727263,-10.506426,-22.064789,-18.309725,0.0010843494
1.060606,0.4848485,-0.0010687448,-0.0005172156,-11.065128,-23.483303,-19.470467,0.0011873194
1.060606,0.5252525,-0.0011661462,-0.0005645603,-11.5830145,-24.868084,-20.590103,0.0012956178
1.060606,0.56565654,-0.0012676418,-0.00061482005,-12.065363,-26.218336,-21.66627,0.0014088717
1.060606,0.6060606,-0.0013725124,-0.0006677676,-12.516604,-27.53304,-22.697004,0.0015263368
1.060606,0.64646465,-0.0014801882,-0.00072345696,-12.9414835,-28.81224,-23.680637,0.0016475277
1.060606,0.68686867,-0.0015901215,-0.0007817745,-13.345301,-30.056622,-24.615845,0.0017719079
1.060606,0.72727275,-0.0017016865,-0.0008427352,-13.731116,-31.266808,-25.501726,0.0018989312
1.060606,0.7676768,-0.0018142201,-0.0009061955,-14.104297,-32.444683,-26.337881,0.002027951
1.060606,0.8080808,-0.0019271858,-0.00097211637,-14.46795,-33.59238,-27.123997,0.0021584844
1.060606,0.8484849,-0.0020399503,-0.0010404494,-14.826008,-34.712437,-27.860764,0.0022899634
1.060606,0.8888889,-0.0021519773,-0.0011111777,-15.181826,-35.808674,-28.548683,0.0024219253
1.060606,0.9292929,-0.0022626705,-0.0011841021,-15.537828,-36.884045,-29.188751,0.0025537768
1.060606,0.969697,-0.002371531,-0.0012592822,-15.896063,-37.94265,-29.782784,0.0026851352
1.060606,1.010101,-0.0024780706,-0.0013366807,-16.258366,-38.988045,-30.332623,0.0028155902
1.060606,1.050505,-0.0025816746,-0.0014162492,-16.626022,-40.02519,-30.840517,0.0029446231
1.060606,1.0909091,-0.0026820414,-0.0014979523,-16.999424,-41.057938,-31.30944,0.0030720038
1.060606,1.1313131,-0.0027787462,-0.001581844,-17.377707,-42.089745,-31.74246,0.0031974458
1.060606,1.1717172,-0.002871327,-0.0016678162,-17.761,-43.12523,-32.143105,0.0033205617
1.060606,1.2121212,-0.0029595904,-0.00175591,-18.147165,-44.1668,-32.515305,0.0034412781
1.060606,1.2525252,-0.0030431636,-0.0018462092,-18.53393,-45.217693,-32.863495,0.0035594006
1.060606,1.2929293,-0.0031219423,-0.0019386187,-18.919735,-46.280457,-33.191956,0.0036748832
1.060606,1.3333334,-0.003195472,-0.0020333603,-19.300232,-47.356518,-33.5057,0.003787558
1.060606,1.3737373,-0.0032639094,-0.002130296,-19.673273,-48.446453,-33.80972,0.0038975973
1.060606,1.4141414,-0.0033270754,-0.0022295415,-20.033516,-49.550117,-34.109512,0.0040050326
1.060606,1.4545455,-0.0033848807,-0.0023311432,-20.379013,-50.666977,-34.41034,0.0041099447
1.060606,1.4949495,-0.003437329,-0.002435116,-20.704147,-51.79418,-34.717464,0.004212484
1.060606,1.5353535,-0.0034845732,-0.0025415309,-21.005297,-52.92932,-35.03688,0.0043129604
1.060606,1.5757576,-0.0035266355,-0.0026504993,-21.280226,-54.068756,-35.373474,0.0044116103
1.060606,1.6161616,-0.0035636537,-0.0027618892,-21.52425,-55.206757,-35.73265,0.0045086206
1.060606,1.6565657,-0.0035958253,-0.002875913,-21.736185,-56.33843,-36.11927,0.0046044365
1.060606,1.6969697,-0.0036232509,-0.00299244,-21.913298,-57.456097,-36.538086,0.0046992176
1.060606,1.7373737,-0.003646236,-0.0031115543,-22.056345,-58.553493,-36.993107,0.004793413
1.060606,1.7777778,-0.003665015,-0.0032331422,-22.16458,-59.62205,-37.487976,0.004887284
1.060606,1.8181819,-0.003679812,-0.0033572577,-22.24129,-60.65417,-38.025787,0.0049811844
1.060606,1.8585858,-0.0036908947,-0.0034837294,-22.288927,-61.64009,-38.608406,0.0050753397
1.060606,1.8989899,-0.0036983676,-0.0036125667,-22.312475,-62.57162,-39.237457,0.005169967
1.060606,1.939394,-0.0037026778,-0.0037435591,-22.318354,-63.43937,-39.913155,0.005265364
1.060606,1.979798,-0.0037038513,-0.003876593,-22.31553,-64.2356,-40.634914,0.005361575
1.060606,2.020202,-0.0037021562,-0.004011521,-22.313583,-64.950806,-41.401085,0.0054587787
1.060606,2.060606,-0.0036976524,-0.004148025,-22.323845,-65.57767,-42.208897,0.0055568647
1.060606,2.10101,-0.0036904663,-0.0042860657,-22.359808,-66.109184,-43.054703,0.0056559616
1.060606,2.1414142,-0.0036806911,-0.0044250526,-22.435562,-66.537834,-43.93283,0.005755743
1.060606,2.1818182,-0.0036682114,-0.004564954,-22.566593,-66.85847,-44.83708,0.0058561573
1.060606,2.2222223,-0.0036531053,-0.0047053117,-22.770279,-67.0671,-45.760265,0.0059569404
1.060606,2.2626262,-0.003634993,-0.004845785,-23.063395,-67.15922,-46.693565,0.006057624
1.060606,2.3030303,-0.0036138892,-0.0049859807,-23.463282,-67.132454,-47.62744,0.006157938
1.060606,2.3434343,-0.0035892092,-0.005125461,-23.987892,-66.98592,-48.55059,0.006257218
1.060606,2.3838384,-0.0035607032,-0.005263785,-24.652748,-66.71817,-49.45232,0.006355001
1.060606,2.4242425,-0.0035279803,-0.0054005794,-25.474936,-66.33066,-50.319714,0.0064508063
1.060606,2.4646466,-0.0034902245,-0.005535286,-26.469097,-65.82501,-51.13991,0.0065437797
1.060606,2.5050504,-0.0034469664,-0.0056674443,-27.64648,-65.20286,-51.89949,0.0066333627
1.060606,2.5454545,-0.0033974499,-0.005796656,-29.017538,-64.468155,-52.58471,0.00671892
1.060606,2.5858586,-0.0033407435,-0.005922433,-30.588593,-63.62363,-53.181656,0.0067996895
1.060606,2.6262627,-0.0032760613,-0.006044166,-32.363422,-62.67414,-53.676407,0.0068749194
1.060606,2.6666667,-0.0032024682,-0.006161481,-34.342976,-61.62393,-54.055523,0.0069440375
1.060606,2.7070708,-0.0031188875,-0.00627397,-36.52105,-60.476788,-54.306,0.007006437
1.060606,2.7474747,-0.0030241795,-0.0063811187,-38.890068,-59.23785,-54.414608,0.0070614684
1.060606,2.7878788,-0.0029173382,-0.0064825136,-41.436703,-57.91067,-54.36998,0.0071087163
1.060606,2.8282828,-0.00279722,-0.006577801,-44.14249,-56.49915,-54.161247,0.0071478602
1.060606,2.868687,-0.002662599,-0.006666623,-46.984592,-55.0065,-53.7788,0.00717867
1.060606,2.909091,-0.0025122315,-0.006748652,-49.935825,-53.43515,-53.213722,0.007201084
1.060606,2.9494948,-0.0023450404,-0.0068236366,-52.963787,-51.787014,-52.45923,0.007215347
1.060606,2.989899,-0.002159834,-0.0068912115,-56.03336,-50.063602,-51.50887,0.0072217504
1.060606,3.030303,-0.0019553974,-0.006951209,-59.102848,-48.26455,-50.35823,0.007221003
1.060606,3.070707,-0.0017306618,-0.0070036,-62.13001,-46.39018,-49.00493,0.0072142635
1.060606,3.1111112,-0.0014845952,-0.0070481244,-65.06916,-44.439606,-47.44693,0.0072027827
1.060606,3.1515152,-0.0012161322,-0.00708472,-67.87272,-42.411655,-45.683666,0.00718834
1.060606,3.191919,-0.0009243563,-0.0071134064,-70.488716,-40.303596,-43.71723,0.007173213
1.060606,3.2323232,-0.00060835853,-0.007134186,-72.86952,-38.11415,-41.5493,0.0071600773
1.060606,3.2727273,-0.00026744604,-0.007147234,-74.963165,-35.84038,-39.184086,0.007152236
1.060606,3.3131313,9.923801e-05,-0.0071524605,-76.71856,-33.479095,-36.626167,0.0071531488
1.060606,3.3535354,0.0004922487,-0.007150214,-78.08845,-31.02859,-33.881073,0.007167138
1.060606,3.3939395,0.00091208145,-0.0071406215,-79.02695,-28.48708,-30.955894,0.007198637
1.060606,3.4343433,0.0013591312,-0.00712391,-79.48991,-25.852074,-27.857637,0.0072524017
1.060606,3.4747474,0.001833763,-0.007100437,-79.43685,-23.122648,-24.594072,0.007333409
1.060606,3.5151515,0.0023363493,-0.0070704985,-78.82904,-20.297342,-21.173956,0.007446508
1.060606,3.5555556,0.0028668083,-0.007034447,-77.63549,-17.37619,-17.605883,0.0075961854
1.060606,3.5959597,0.0034252591,-0.0069927108,-75.82799,-14.360524,-13.899055,0.0077865524
1.060606,3.6363637,0.0040117763,-0.0069456957,-73.381035,-11.25057,-10.062094,0.008021037
1.060606,3.6767676,0.004626129,-0.0068938565,-70.27603,-8.04866,-6.104728,0.008302188
1.060606,3.7171717,0.005268041,-0.006837651,-66.50095,-4.7584596,-2.0357494,0.00863167
1.060606,3.7575758,0.0059375055,-0.0067776367,-62.042545,-1.3819662,2.1356015,0.009010567
1.060606,3.7979798,0.006633904,-0.006714249,-56.898884,2.0757368,6.4001846,0.00943874
1.060606,3.838384,0.007356975,-0.006648088,-51.06992,5.609577,10.749447,0.009915753
1.060606,3.878788,0.008106146,-0.006579632,-44.55885,9.2149935,15.174931,0.010440362
1.060606,3.9191918,0.008881021,-0.0065094754,-37.37107,12.887696,19.667587,0.011011167
1.060606,3.959596,0.009681042,-0.006438082,-29.521868,16.619928,24.220552,0.0116263265
1.060606,4.0,0.010505494,-0.006366182,-21.025377,20.406553,28.82472,0.012283878
1.111111,0.04040404,-0.00040256605,-0.00021295995,-1.2529657,-6.7463794,-5.6234217,0.00045542436
1.111111,0.08080808,-0.00042550638,-0.00022960268,-2.4816427,-8.472887,-6.960209,0.00048350086
1.111111,0.121212125,-0.00045706704,-0.0002493076,-3.6234677,-10.196115,-8.298004,0.0005206386
1.111111,0.16161616,-0.00049676,-0.00027200952,-4.6818757,-11.913083,-9.631465,0.0005663565
1.111111,0.2020202,-0.00054446235,-0.00029785186,-5.6601815,-13.620237,-10.955465,0.00062060857
1.111111,0.24242425,-0.00059978664,-0.00032688305,-6.562555,-15.314453,-12.265274,0.0006830787
1.111111,0.28282827,-0.0006623976,-0.00035916828,-7.3922377,-16.991577,-13.556073,0.0007535067
1.111111,0.32323232,-0.0007319264,-0.0003946647,-8.154252,-18.648792,-14.823708,0.0008315506
1.111111,0.36363637,-0.00080793723,-0.00043350086,-8.851428,-20.281624,-16.064098,0.00091688905
1.111111,0.4040404,-0.0008900203,-0.00047548302,-9.489137,-21.887388,-17.273481,0.001009069
1.111111,0.44444445,-0.0009775013,-0.0005208254,-10.072117,-23.463745,-18.448563,0.0011075955
1.111111,0.4848485,-0.0010701045,-0.0005693771,-10.604427,-25.00719,-19.586376,0.0012121527
1.111111,0.5252525,-0.0011671409,-0.0006211288,-11.091053,-26.51586,-20.684145,0.0013221267
1.111111,0.56565654,-0.0012681969,-0.000676021,-11.537597,-27.988316,-21.739607,0.0014371248
1.111111,0.6060606,-0.0013725609,-0.0007340573,-11.948263,-29.422766,-22.750761,0.0015565228
1.111111,0.64646465,-0.0014797561,-0.000795139,-12.32805,-30.81887,-23.716364,0.0016798584
1.111111,0.68686867,-0.0015891939,-0.0008592084,-12.68246,-32.17668,-24.634905,0.0018065926
1.111111,0.72727275,-0.0017001517,-0.0009262208,-13.01506,-33.49628,-25.50581,0.0019360788
1.111111,0.7676768,-0.0018121414,-0.0009960495,-13.331631,-34.778694,-26.328691,0.002067842
1.111111,0.8080808,-0.0019245334,-0.0010687001,-13.636625,-36.026577,-27.103504,0.0022013516
1.111111,0.8484849,-0.0020367466,-0.001144018,-13.933485,-37.241043,-27.83064,0.0023360467
1.111111,0.8888889,-0.0021483079,-0.0012219213,-14.226658,-38.4248,-28.510885,0.0024715012
1.111111,0.9292929,-0.0022585317,-0.0013024509,-14.518593,-39.581356,-29.145437,0.0026071717
1.111111,0.969697,-0.0023669451,-0.0013854764,-14.813476,-40.714405,-29.73574,0.0027426218
1.111111,1.010101,-0.0024730414,-0.0014709197,-15.113254,-41.827324,-30.283834,0.0028774187
1.111111,1.050505,-0.0025762878,-0.0015587825,-15.419704,-42.924355,-30.791952,0.0030111563
1.111111,1.0909091,-0.002676338,-0.0016489141,-15.73435,-44.009678,-31.262964,0.0031435175
1.111111,1.1313131,-0.0027726963,-0.0017414503,-16.058176,-45.087513,-31.699602,0.0032742165
1.111111,1.1717172,-0.0028650165,-0.0018362291,-16.391228,-46.16165,-32.10545,0.0034029484
1.111111,1.2121212,-0.0029529892,-0.0019333065,-16.732924,-47.236256,-32.484337,0.0035295635
1.111111,1.2525252,-0.0030362792,-0.002032673,-17.081675,-48.314472,-32.8401,0.0036538679
1.111111,1.2929293,-0.0031147115,-0.0021342654,-17.43736,-49.4002,-33.17736,0.0037757803
1.111111,1.3333334,-0.0031880252,-0.00223824,-17.795288,-50.49452,-33.500557,0.0038952823
1.111111,1.3737373,-0.0032561682,-0.0023444146,-18.15562,-51.60069,-33.814533,0.004012345
1.111111,1.4141414,-0.0033189356,-0.002453059,-18.512823,-52.71839,-34.12446,0.004127085
1.111111,1.4545455,-0.00337632,-0.002563974,-18.865223,-53.849102,-34.4353,0.0042395163
1.111111,1.4949495,-0.0034283213,-0.0026773736,-19.208452,-54.991447,-34.7526,0.00434991
1.111111,1.5353535,-0.0034750216,-0.002793271,-19.539362,-56.14444,-35.0815,0.0044584908
1.111111,1.5757576,-0.0035164654,-0.0029115863,-19.8548,-57.305,-35.42735,0.0045653987
1.111111,1.6161616,-0.003552843,-0.0030324273,-20.150427,-58.469307,-35.79551,0.0046710074
1.111111,1.6565657,-0.0035842173,-0.0031558666,-20.424797,-59.633873,-36.19051,0.004775574
1.111111,1.6969697,-0.003610842,-0.0032818764,-20.675556,-60.793076,-36.617287,0.0048794355
1.111111,1.7373737,-0.0036329255,-0.0034104828,-20.900557,-61.93983,-37.079994,0.004982925
1.111111,1.7777778,-0.003650725,-0.0035415888,-21.100813,-63.068233,-37.582573,0.0050863195
1.111111,1.8181819,-0.0036645308,-0.0036753546,-21.27653,-64.17092,-38.128128,0.0051900884
1.111111,1.8585858,-0.0036745146,-0.0038115084,-21.430197,-65.23892,-38.719402,0.005294304
1.111111,1.8989899,-0.0036810227,-0.0039500967,-21.564802,-66.26404,-39.35814,0.0053993696
1.111111,1.939394,-0.003684301,-0.0040910207,-21.685938,-67.23781,-40.04526,0.0055054994
1.111111,1.979798,-0.0036844574,-0.004234122,-21.799114,-68.15043,-40.78052,0.0056127547
1.111111,2.020202,-0.003681887,-0.0043792315,-21.914593,-68.99492,-41.56355,0.00572136
1.111111,2.060606,-0.003676746,-0.004526198,-22.041243,-69.76144,-42.391964,0.005831375
1.111111,2.10101,-0.0036690123,-0.0046748426,-22.190235,-70.44206,-43.262444,0.00594271
1.111111,2.1414142,-0.0036590397,-0.004824836,-22.375597,-71.029526,-44.17089,0.006055379
1.111111,2.1818182,-0.003646601,-0.0049759373,-22.611004,-71.516556,-45.111404,0.0061690887
1.111111,2.2222223,-0.0036318637,-0.0051278565,-22.912373,-71.89766,-46.077713,0.006283737
1.111111,2.2626262,-0.0036145598,-0.0052801445,-23.29602,-72.1667,-47.06125,0.0063988254
1.111111,2.3030303,-0.0035946742,-0.0054324996,-23.779598,-72.32003,-48.053196,0.006514118
1.111111,2.3434343,-0.0035718381,-0.005584579,-24.379644,-72.354515,-49.043575,0.006629144
1.111111,2.3838384,-0.0035457164,-0.0057358947,-25.113434,-72.26696,-50.02084,0.006743337
1.111111,2.4242425,-0.0035158955,-0.005885927,-25.99808,-72.056984,-50.972866,0.006856067
1.111111,2.4646466,-0.003481906,-0.0060343686,-27.04883,-71.72394,-51.88714,0.00696687
1.111111,2.5050504,-0.0034430176,-0.0061805528,-28.278807,-71.26806,-52.749523,0.007074857
1.111111,2.5454545,-0.003398601,-0.006324133,-29.700813,-70.69135,-53.54614,0.007179495
1.111111,2.5858586,-0.0033478327,-0.0064645708,-31.324371,-69.99534,-54.26288,0.0072800177
1.111111,2.6262627,-0.0032899342,-0.0066013187,-33.155106,-69.18311,-54.88479,0.0073757083
1.111111,2.6666667,-0.0032236986,-0.0067339,-35.195396,-68.257065,-55.397423,0.0074657644
1.111111,2.7070708,-0.0031483658,-0.006861873,-37.444183,-67.22066,-55.786846,0.0075496696
1.111111,2.7474747,-0.003062673,-0.006984586,-39.895588,-66.07683,-56.03854,0.007626559
1.111111,2.7878788,-0.0029654577,-0.0071017724,-42.53973,-64.82901,-56.13996,0.007696045
1.111111,2.8282828,-0.0028555952,-0.007212842,-45.360085,-63.479206,-56.07809,0.0077575454
1.111111,2.868687,-0.002731774,-0.007317541,-48.337276,-62.030468,-55.84235,0.007810826
1.111111,2.909091,-0.0025927834,-0.0074153505,-51.44549,-60.484486,-55.421772,0.007855568
1.111111,2.9494948,-0.0024373122,-0.00750586,-54.653797,-58.841415,-54.80747,0.007891668
1.111111,2.989899,-0.0022640787,-0.0075888447,-57.9276,-57.10287,-53.991863,0.007919382
1.111111,3.030303,-0.0020717978,-0.0076639894,-61.226288,-55.26795,-52.968826,0.007939085
1.111111,3.070707,-0.0018592328,-0.007731082,-64.50682,-53.3357,-51.733704,0.007951502
1.111111,3.1111112,-0.0016251393,-0.007789891,-67.72062,-51.304134,-50.28334,0.007957606
1.111111,3.1515152,-0.0013685599,-0.00784024,-70.818504,-49.171368,-48.615913,0.007958789
1.111111,3.191919,-0.00108812,-0.00788215,-73.74599,-46.933735,-46.731964,0.0079569025
1.111111,3.2323232,-0.00078291073,-0.007915391,-76.44891,-44.588173,-44.63226,0.007954015
1.111111,3.2727273,-0.00045199692,-0.007940149,-78.870575,-42.13031,-42.319775,0.007953003
1.111111,3.3131313,-9.441748e-05,-0.007956255,-80.9561,-39.55713,-39.798954,0.007956815
1.111111,3.3535354,0.0002904497,-0.007963961,-82.650986,-36.864372,-37.074543,0.007969256
1.111111,3.3939395,0.0007034503,-0.007963426,-83.89952,-34.048325,-34.15341,0.007994436
1.111111,3.4343433,0.0011450052,-0.0079546645,-84.65342,-31.106401,-31.042294,0.008036649
1.111111,3.4747474,0.0016156435,-0.0079381075,-84.86137,-28.03497,-27.749521,0.008100855
1.111111,3.5151515,0.002115719,-0.007913906,-84.480446,-24.832907,-24.283695,0.008191836
1.111111,3.5555556,0.0026454888,-0.007882491,-83.4683,-21.498505,-20.654015,0.008314582
1.111111,3.5959597,0.0032050721,-0.007844068,-81.790016,-18.031523,-16.86986,0.008473599
1.111111,3.6363637,0.003794577,-0.0077991504,-79.41396,-14.433166,-12.941057,0.0086732665
1.111111,3.6767676,0.004413873,-0.007748142,-76.31413,-10.704372,-8.877263,0.008917173
1.111111,3.7171717,0.005062904,-0.007691443,-72.47044,-6.8487806,-4.68845,0.009208218
1.111111,3.7575758,0.005741257,-0.0076296553,-67.86863,-2.869875,-0.3850625,0.009548491
1.111111,3.7979798,0.006448876,-0.0075631775,-62.495956,1.228842,4.0241733,0.009939299
1.111111,3.838384,0.007185232,-0.0074924864,-56.351265,5.440258,8.529081,0.010380988
1.111111,3.878788,0.007949788,-0.007418273,-49.436287,9.757738,13.120515,0.010873358
1.111111,3.9191918,0.008742172,-0.0073409397,-41.754818,14.175393,17.789751,0.011415558
1.111111,3.959596,0.009561632,-0.007261187,-33.318085,18.68464,22.527882,0.012006233
1.111111,4.0,0.010407675,-0.0071795173,-24.140993,23.27781,27.326542,0.01264378
1.1616161,0.04040404,-0.0003966987,-0.00023943186,-0.7605532,-6.8835006,-5.9895363,0.0004633546
1.1616161,0.08080808,-0.00042111427,-0.00025710277,-2.00842,-8.730545,-7.2938275,0.00049339543
1.1616161,0.121212125,-0.00045379624,-0.00027803704,-3.166123,-10.574086,-8.59947,0.0005321989
1.1616161,0.16161616,-0.0004944615,-0.00030232593,-4.236454,-12.411255,-9.901204,0.0005795629
1.1616161,0.2020202,-0.0005427897,-0.00033002347,-5.2228165,-14.238793,-11.193868,0.00063524494
1.1616161,0.24242425,-0.00059863925,-0.0003611818,-6.1290574,-16.053274,-12.472546,0.00069915754
1.1616161,0.28282827,-0.0006614961,-0.00039585307,-6.9581347,-17.850845,-13.732843,0.0007708934
1.1616161,0.32323232,-0.00073116645,-0.00043407828,-7.715445,-19.629007,-14.970245,0.0008503107
1.1616161,0.36363637,-0.0008070171,-0.00047584064,-8.403867,-21.383066,-16.180834,0.00093685696
1.1616161,0.4040404,-0.00088879466,-0.0005212631,-9.028263,-23.110344,-17.361046,0.0010303743
1.1616161,0.44444445,-0.0009759292,-0.000570206,-9.592928,-24.80737,-18.50755,0.0011302975
1.1616161,0.4848485,-0.0010680407,-0.0006226953,-10.103614,-26.472082,-19.617273,0.0012363092
1.1616161,0.5252525,-0.0011645555,-0.0006787237,-10.564159,-28.101292,-20.68786,0.0013479078
1.1616161,0.56565654,-0.0012648664,-0.00073824264,-10.980559,-29.693403,-21.716862,0.0014645441
1.1616161,0.6060606,-0.001368463,-0.0008012168,-11.356774,-31.246555,-22.702734,0.0015857614
1.1616161,0.64646465,-0.0014748573,-0.0008675717,-11.69834,-32.759518,-23.643852,0.0017111064
1.1616161,0.68686867,-0.0015833341,-0.00093723834,-12.011002,-34.23204,-24.539425,0.0018399354
1.1616161,0.72727275,-0.0016934834,-0.0010101255,-12.299515,-35.663612,-25.388542,0.001971862
1.1616161,0.7676768,-0.0018046089,-0.0010861736,-12.568246,-37.054874,-26.1912,0.002106273
1.1616161,0.8080808,-0.0019161738,-0.0011653267,-12.822722,-38.407364,-26.947315,0.0022427011
1.1616161,0.8484849,-0.002027586,-0.0012474936,-13.067616,-39.722225,-27.657562,0.0023806186
1.1616161,0.8888889,-0.0021382757,-0.0013325736,-13.306864,-41.001316,-28.322474,0.0025195188
1.1616161,0.9292929,-0.0022478066,-0.0014205333,-13.54475,-42.247963,-28.943823,0.0026590505
1.1616161,0.969697,-0.0023554228,-0.0015112329,-13.7845125,-43.464638,-29.522825,0.0027985428
1.1616161,1.010101,-0.0024608485,-0.0016046204,-14.029888,-44.65525,-30.061695,0.0029377851
1.1616161,1.050505,-0.002563551,-0.0017006267,-14.283228,-45.82305,-30.562485,0.0030763494
1.1616161,1.0909091,-0.0026629865,-0.0017992146,-14.546844,-46.97262,-31.02797,0.003213825
1.1616161,1.1313131,-0.0027588457,-0.0019003078,-14.822064,-48.107437,-31.46116,0.003349985
1.1616161,1.1717172,-0.0028506368,-0.0020038951,-15.110356,-49.232384,-31.865406,0.003484498
1.1616161,1.2121212,-0.0029381476,-0.0021098629,-15.411572,-50.35077,-32.244152,0.0036172133
1.1616161,1.2525252,-0.003021028,-0.0022183266,-15.726496,-51.467327,-32.60153,0.0037480104
1.1616161,1.2929293,-0.0030990802,-0.002329165,-16.053026,-52.584713,-32.941696,0.003876765
1.1616161,1.3333334,-0.003171958,-0.0024424251,-16.390955,-53.707382,-33.26897,0.0040033436
1.1616161,1.3737373,-0.0032397136,-0.0025580544,-16.737165,-54.836796,-33.58819,0.004127879
1.1616161,1.4141414,-0.003302034,-0.002676135,-17.090902,-55.97564,-33.903988,0.004250309
1.1616161,1.4545455,-0.003359083,-0.0027965792,-17.448442,-57.125298,-34.221565,0.004370846
1.1616161,1.4949495,-0.003410671,-0.0029194579,-17.806282,-58.285725,-34.54574,0.0044895336
1.1616161,1.5353535,-0.0034568347,-0.0030449033,-18.162767,-59.457634,-34.882233,0.004606641
1.1616161,1.5757576,-0.0034978203,-0.003172826,-18.513685,-60.639435,-35.2355,0.004722454
1.1616161,1.6161616,-0.0035336055,-0.0033033006,-18.855856,-61.82867,-35.611076,0.0048371647
1.1616161,1.6565657,-0.0035643615,-0.0034363456,-19.187515,-63.02289,-36.0134,0.004951075
1.1616161,1.6969697,-0.0035903081,-0.0035719462,-19.505238,-64.21751,-36.447666,0.0050644954
1.1616161,1.7373737,-0.0036117136,-0.0037101544,-19.807688,-65.407875,-36.918064,0.0051778103
1.1616161,1.7777778,-0.0036287121,-0.0038509686,-20.094011,-66.58808,-37.428516,0.0052912673
1.1616161,1.8181819,-0.0036416687,-0.003994398,-20.364645,-67.75264,-37.982258,0.005405272
1.1616161,1.8585858,-0.0036508776,-0.004140284,-20.61884,-68.89222,-38.582687,0.0055200416
1.1616161,1.8989899,-0.003656529,-0.0042887516,-20.861023,-70.00085,-39.23163,0.00563592
1.1616161,1.939394,-0.0036589913,-0.0044396073,-21.09362,-71.069374,-39.93076,0.005753115
1.1616161,1.979798,-0.0036584735,-0.00459281,-21.322687,-72.08964,-40.68047,0.005871825
1.1616161,2.020202,-0.0036552735,-0.004748173,-21.554323,-73.05257,-41.480698,0.0059921755
1.1616161,2.060606,-0.0036494844,-0.0049056318,-21.79763,-73.94991,-42.32939,0.006114242
1.1616161,2.10101,-0.003641516,-0.0050648972,-22.061304,-74.772255,-43.22506,0.0062380945
1.1616161,2.1414142,-0.0036313124,-0.005225748,-22.358631,-75.512024,-44.16353,0.006363558
1.1616161,2.1818182,-0.0036190487,-0.005387988,-22.701084,-76.1607,-45.1399,0.006490603
1.1616161,2.2222223,-0.00360474,-0.005551301,-23.104124,-76.7114,-46.148445,0.006618995
1.1616161,2.2626262,-0.003588315,-0.005715359,-23.582743,-77.157486,-47.181953,0.006748432
1.1616161,2.3030303,-0.0035696775,-0.0058798715,-24.153255,-77.492744,-48.23185,0.006878625
1.1616161,2.3434343,-0.0035486408,-0.0060443953,-24.833012,-77.7128,-49.288673,0.0070091058
1.1616161,2.3838384,-0.0035249256,-0.0062085446,-25.63949,-77.813614,-50.341724,0.0071394066
1.1616161,2.4242425,-0.0034980662,-0.0063718427,-26.588621,-77.79114,-51.379265,0.007268896
1.1616161,2.4646466,-0.003467705,-0.0065338723,-27.697498,-77.64423,-52.388615,0.007397058
1.1616161,2.5050504,-0.0034331493,-0.006694142,-28.980833,-77.37074,-53.356106,0.0075231674
1.1616161,2.5454545,-0.003393788,-0.0068521276,-30.452309,-76.9705,-54.267647,0.007646532
1.1616161,2.5858586,-0.0033489168,-0.0070073158,-32.124756,-76.44451,-55.108498,0.0077664484
1.1616161,2.6262627,-0.0032975972,-0.007159246,-34.003624,-75.79187,-55.86387,0.007882192
1.1616161,2.6666667,-0.0032389127,-0.007307237,-36.09783,-75.01627,-56.51808,0.007992889
1.1616161,2.7070708,-0.0031717792,-0.0074509624,-38.40609,-74.117,-57.05623,0.008097964
1.1616161,2.7474747,-0.0030950755,-0.0075897537,-40.92718,-73.09744,-57.46296,0.008196576
1.1616161,2.7878788,-0.0030077435,-0.0077231526,-43.65503,-71.95969,-57.724636,0.008288161
1.1616161,2.8282828,-0.0029083788,-0.007850669,-46.57551,-70.70409,-57.826458,0.008372077
1.1616161,2.868687,-0.002795741,-0.007971717,-49.67209,-69.33248,-57.75557,0.008447748
1.1616161,2.909091,-0.002668526,-0.008086013,-52.92257,-67.84635,-57.500057,0.008514965
1.1616161,2.9494948,-0.0025251992,-0.008193018,-56.29681,-66.2448,-57.04914,0.008573341
1.1616161,2.989899,-0.0023646094,-0.008292355,-59.763554,-64.5282,-56.3936,0.008622907
1.1616161,3.030303,-0.0021851622,-0.008383669,-63.28181,-62.694714,-55.524967,0.008663766
1.1616161,3.070707,-0.0019856058,-0.008466642,-66.808685,-60.74245,-54.436604,0.008696359
1.1616161,3.1111112,-0.0017644949,-0.008541018,-70.296,-58.669,-53.124046,0.008721378
1.1616161,3.1515152,-0.0015206225,-0.008606503,-73.690956,-56.470104,-51.58404,0.008739805
1.1616161,3.191919,-0.0012526587,-0.008662989,-76.938995,-54.1425,-49.814972,0.008753087
1.1616161,3.2323232,-0.0009594448,-0.008710252,-79.97912,-51.679848,-47.816704,0.008762934
1.1616161,3.2727273,-0.0006397329,-0.008748328,-82.751755,-49.07752,-45.59107,0.008771688
1.1616161,3.3131313,-0.00029268116,-0.008776955,-85.19699,-46.330334,-43.14094,0.008781834
1.1616161,3.3535354,8.287653e-05,-0.008796377,-87.250534,-43.432056,-40.471535,0.008796767
1.1616161,3.3939395,0.0004875809,-0.008806659,-88.8538,-40.378376,-37.58816,0.008820146
1.1616161,3.4343433,0.00092226267,-0.0088077225,-89.94563,-37.163105,-34.49756,0.0088558765
1.1616161,3.4747474,0.0013876073,-0.008799892,-90.469986,-33.782215,-31.20818,0.008908622
1.1616161,3.5151515,0.0018839501,-0.008783337,-90.37374,-30.23231,-27.728642,0.008983111
1.1616161,3.5555556,0.0024117269,-0.008758327,-89.60589,-26.50988,-24.068104,0.009084311
1.1616161,3.5959597,0.0029714443,-0.008725118,-88.120766,-22.613253,-20.237207,0.009217221
1.1616161,3.6363637,0.003562972,-0.008684142,-85.87899,-18.541655,-16.245708,0.009386644
1.1616161,3.6767676,0.0041864626,-0.008635759,-82.84625,-14.296349,-12.104575,0.009597021
1.1616161,3.7171717,0.004841786,-0.00858029,-78.99392,-9.878567,-7.824173,0.00985212
1.1616161,3.7575758,0.0055289343,-0.0085183885,-74.29918,-5.292047,-3.4155397,0.010155396
1.1616161,3.7979798,0.006247405,-0.008450309,-68.74689,-0.5415898,1.1109245,0.010508939
1.1616161,3.838384,0.0069969893,-0.008376753,-62.32687,4.3667665,5.7452464,0.010914571
1.1616161,3.878788,0.0077772327,-0.008298151,-55.03541,9.425715,10.476756,0.01137298
1.1616161,3.9191918,0.008587521,-0.0082151275,-46.87524,14.627521,15.29591,0.011884185
1.1616161,3.959596,0.00942729,-0.008128166,-37.85531,19.961613,20.193445,0.012447526
1.1616161,4.0,0.010295894,-0.008037908,-27.98666,25.419207,25.16012,0.013061907
1.2121212,0.04040404,-0.000389155,-0.0002669841,-0.24633403,-7.0362234,-6.303746,0.00047193444
1.2121212,0.08080808,-0.000414934,-0.00028576702,-1.5086932,-8.996048,-7.5733347,0.00050381845
1.2121212,0.121212125,-0.00044863299,-0.0003079921,-2.6777978,-10.952304,-8.844407,0.0005441789
1.2121212,0.16161616,-0.0004900694,-0.00033378974,-3.7565854,-12.901709,-10.111853,0.00059294485
1.2121212,0.2020202,-0.0005390644,-0.00036334246,-4.747815,-14.841296,-11.370455,0.00065008324
1.2121212,0.24242425,-0.0005951859,-0.0003966391,-5.6557636,-16.76799,-12.615256,0.00071524037
1.2121212,0.28282827,-0.00065815076,-0.00043368712,-6.4839993,-18.678633,-13.841609,0.0007881922
1.2121212,0.32323232,-0.0007276572,-0.00047458708,-7.235673,-20.569195,-15.045417,0.00086874503
1.2121212,0.36363637,-0.0008032657,-0.00051933527,-7.9160686,-22.437006,-16.222704,0.00095652754
1.2121212,0.4040404,-0.00088460743,-0.0005679522,-8.528742,-24.278418,-17.369799,0.0010512373
1.2121212,0.44444445,-0.0009711571,-0.0006204173,-9.07862,-26.090584,-18.483456,0.0011524165
1.2121212,0.4848485,-0.0010624826,-0.00067673065,-9.57032,-27.870108,-19.560854,0.0012596959
1.2121212,0.5252525,-0.0011581443,-0.0007369444,-10.009266,-29.615053,-20.59962,0.0013727291
1.2121212,0.56565654,-0.0012574904,-0.00080092624,-10.399989,-31.32284,-21.597376,0.001490894
1.2121212,0.6060606,-0.0013601296,-0.00086866133,-10.747807,-32.99141,-22.552795,0.0016138541
1.2121212,0.64646465,-0.0014654472,-0.00094003044,-11.058531,-34.619453,-23.464178,0.0017410322
1.2121212,0.68686867,-0.0015728921,-0.0010150764,-11.33685,-36.205814,-24.331018,0.0018719961
1.2121212,0.72727275,-0.0016818494,-0.0010936894,-11.588154,-37.75009,-25.152548,0.0020061838
1.2121212,0.7676768,-0.0017918386,-0.0011757929,-11.817775,-39.252193,-25.928823,0.0021431693
1.2121212,0.8080808,-0.001902245,-0.0012612976,-12.030949,-40.71255,-26.659834,0.0022824127
1.2121212,0.8484849,-0.002012618,-0.0013500787,-12.232456,-42.131786,-27.346615,0.002423498
1.2121212,0.8888889,-0.002122257,-0.001442099,-12.4275875,-43.51251,-27.989727,0.0025658573
1.2121212,0.9292929,-0.002230648,-0.0015372541,-12.620081,-44.855835,-28.590769,0.0027090479
1.2121212,0.969697,-0.0023373626,-0.0016354471,-12.814045,-46.164516,-29.151497,0.0028527095
1.2121212,1.010101,-0.0024418011,-0.0017366149,-13.013682,-47.44152,-29.673681,0.0029963686
1.2121212,1.050505,-0.0025436245,-0.0018406399,-13.222544,-48.690544,-30.160057,0.0031397422
1.2121212,1.0909091,-0.0026422292,-0.0019474793,-13.44291,-49.91479,-30.613012,0.003282385
1.2121212,1.1313131,-0.0027372837,-0.0020571146,-13.677103,-51.118145,-31.035805,0.0034240973
1.2121212,1.1717172,-0.002828408,-0.0021693222,-13.927237,-52.305107,-31.431421,0.0035645266
1.2121212,1.2121212,-0.002915293,-0.0022842195,-14.194289,-53.4795,-31.803518,0.0037035916
1.2121212,1.2525252,-0.002997622,-0.0024016984,-14.479029,-54.645344,-32.155994,0.0038410795
1.2121212,1.2929293,-0.0030750856,-0.0025216863,-14.7808695,-55.806522,-32.49305,0.0039768144
1.2121212,1.3333334,-0.0031475537,-0.0026441943,-15.1000185,-56.96686,-32.818886,0.004110822
1.2121212,1.3737373,-0.0032147802,-0.0027692374,-15.435112,-58.129868,-33.138092,0.0042430516
1.2121212,1.4141414,-0.0032767504,-0.0028967243,-15.784684,-59.29812,-33.455063,0.004373569
1.2121212,1.4545455,-0.0033333153,-0.003026735,-16.146269,-60.47407,-33.775154,0.0045024566
1.2121212,1.4949495,-0.0033845007,-0.0031592809,-16.517862,-61.659607,-34.102585,0.0046298923
1.2121212,1.5353535,-0.003430277,-0.0032943543,-16.89655,-62.85496,-34.44311,0.0047560036
1.2121212,1.5757576,-0.0034707636,-0.003431972,-17.279821,-64.061134,-34.80123,0.004881048
1.2121212,1.6161616,-0.003506042,-0.0035721213,-17.664362,-65.27652,-35.182045,0.0050052353
1.2121212,1.6565657,-0.003536366,-0.0037148464,-18.047882,-66.49966,-35.59046,0.0051289345
1.2121212,1.6969697,-0.003561765,-0.0038602054,-18.427418,-67.72804,-36.030968,0.0052523664
1.2121212,1.7373737,-0.003582593,-0.004008198,-18.80175,-68.95856,-36.507954,0.00537593
1.2121212,1.7777778,-0.0035990402,-0.004158754,-19.167854,-70.18538,-37.025948,0.0054998477
1.2121212,1.8181819,-0.0036113933,-0.004311966,-19.52684,-71.40466,-37.587833,0.0056245187
1.2121212,1.8585858,-0.0036199838,-0.004467776,-19.878437,-72.60985,-38.19715,0.005750244
1.2121212,1.8989899,-0.003625065,-0.00462611,-20.223152,-73.79348,-38.856613,0.005877244
1.2121212,1.939394,-0.0036268868,-0.0047870185,-20.563911,-74.94854,-39.567875,0.0060058185
1.2121212,1.979798,-0.003625881,-0.0049503148,-20.90503,-76.06714,-40.331955,0.006136174
1.2121212,2.020202,-0.0036221817,-0.0051159747,-21.250847,-77.13999,-41.149155,0.0062684445
1.2121212,2.060606,-0.003616102,-0.0052838065,-21.608932,-78.15964,-42.018604,0.0064027184
1.2121212,2.10101,-0.00360794,-0.005453622,-21.98813,-79.116646,-42.938732,0.0065390537
1.2121212,2.1414142,-0.0035977177,-0.005625386,-22.397251,-80.00205,-43.90651,0.006677465
1.2121212,2.1818182,-0.0035857894,-0.005798744,-22.849026,-80.807884,-44.918255,0.006817867
1.2121212,2.2222223,-0.0035720095,-0.0059734546,-23.356033,-81.52561,-45.96826,0.0069599864
1.2121212,2.2626262,-0.003556434,-0.0061492193,-23.931793,-82.147484,-47.050587,0.007103599
1.2121212,2.3030303,-0.003539212,-0.006325742,-24.59348,-82.66689,-48.157314,0.00724852
1.2121212,2.3434343,-0.0035199486,-0.0065026786,-25.355942,-83.07651,-49.2795,0.0073942454
1.2121212,2.3838384,-0.0034985058,-0.0066796187,-26.236149,-83.37105,-50.40744,0.007540348
1.2121212,2.4242425,-0.0034745708,-0.0068561267,-27.252378,-83.54633,-51.5298,0.007686294
1.2121212,2.4646466,-0.0034477524,-0.007031774,-28.420012,-83.59712,-52.63416,0.007831529
1.2121212,2.5050504,-0.0034175254,-0.0072060544,-29.755552,-83.52088,-53.70746,0.007975381
1.2121212,2.5454545,-0.0033830926,-0.0073785093,-31.273947,-83.315025,-54.735386,0.008117125
1.2121212,2.5858586,-0.0033439882,-0.007548623,-32.988758,-82.97828,-55.70378,0.008256147
1.2121212,2.6262627,-0.0032992065,-0.0077158697,-34.910484,-82.509605,-56.59636,0.008391627
1.2121212,2.6666667,-0.0032478906,-0.007879585,-37.048565,-81.908875,-57.3979,0.0085227145
1.2121212,2.7070708,-0.0031890422,-0.008039374,-39.40496,-81.17588,-58.092693,0.008648788
1.2121212,2.7474747,-0.0031214133,-0.008194532,-41.98235,-80.31032,-58.664246,0.008768898
1.2121212,2.7878788,-0.0030438825,-0.008344704,-44.776714,-79.31395,-59.097557,0.008882528
1.2121212,2.8282828,-0.0029551573,-0.008489171,-47.77987,-78.18663,-59.376816,0.008988826
1.2121212,2.868687,-0.002853971,-0.008627472,-50.977715,-76.92864,-59.487946,0.009087267
1.2121212,2.909091,-0.0027386881,-0.008759014,-54.350468,-75.539276,-59.416515,0.0091771865
1.2121212,2.9494948,-0.002608087,-0.008883413,-57.87252,-74.01778,-59.150616,0.009258355
1.2121212,2.989899,-0.0024605505,-0.00900007,-61.51269,-72.36244,-58.678238,0.009330357
1.2121212,3.030303,-0.0022946037,-0.009108745,-65.2353,-70.57208,-57.98993,0.009393319
1.2121212,3.070707,-0.0021088272,-0.009208923,-68.99623,-68.642334,-57.076954,0.009447297
1.2121212,3.1111112,-0.0019015782,-0.009300204,-72.74888,-66.57044,-55.932766,0.009492618
1.2121212,3.1515152,-0.0016713738,-0.009382352,-76.437325,-64.35007,-54.551296,0.009530059
1.2121212,3.191919,-0.0014170073,-0.009454967,-80.0069,-61.97659,-52.930016,0.009560561
1.2121212,3.2323232,-0.0011368729,-0.009517996,-83.394424,-59.443203,-51.067947,0.009585652
1.2121212,3.2727273,-0.00082975253,-0.0095711425,-86.53594,-56.743,-48.963844,0.009607042
1.2121212,3.3131313,-0.00049446523,-0.0096143205,-89.36421,-53.868317,-46.620678,0.009627027
1.2121212,3.3535354,-0.00012973323,-0.0096474625,-91.812195,-50.81223,-44.041504,0.009648335
1.2121212,3.3939395,0.00026533008,-0.009670505,-93.810814,-47.566647,-41.231773,0.009674145
1.2121212,3.4343433,0.0006917156,-0.009683568,-95.29283,-44.12416,-38.19764,0.009708242
1.2121212,3.4747474,0.0011502393,-0.009686701,-96.19123,-40.477894,-34.946712,0.009754755
1.2121212,3.5151515,0.0016415603,-0.009679951,-96.44342,-36.621647,-31.487793,0.009818155
1.2121212,3.5555556,0.0021662079,-0.009663658,-95.98825,-32.549843,-27.830744,0.009903471
1.2121212,3.5959597,0.0027246214,-0.00963798,-94.77131,-28.259027,-23.985767,0.010015698
1.2121212,3.6363637,0.0033170357,-0.009603128,-92.74287,-23.746363,-19.96391,0.010159861
1.2121212,3.6767676,0.00394376,-0.009559639,-89.85487,-19.009844,-15.776666,0.010341177
1.2121212,3.7171717,0.0046046786,-0.009507723,-86.07246,-14.050699,-11.434883,0.010564084
1.2121212,3.7575758,0.0052997433,-0.00944777,-81.361984,-8.870387,-6.950833,0.010832712
1.2121212,3.7979798,0.0060288124,-0.009380361,-75.69892,-3.4733217,-2.3357463,0.011150684
1.2121212,3.838384,0.0067915656,-0.009305956,-69.0655,2.1354578,2.3991694,0.011520685
1.2121212,3.878788,0.007587496,-0.009224964,-61.45261,7.948203,7.242588,0.011944457
1.2121212,3.9191918,0.00841606,-0.009138055,-52.856388,13.956258,12.1837845,0.012423129
1.2121212,3.959596,0.009276841,-0.0090457965,-43.280167,20.14928,17.21199,0.0129570905
1.2121212,4.0,0.010168973,-0.008948559,-32.734962,26.51565,22.318377,0.013545653
1.2626263,0.04040404,-0.00037969276,-0.00029525906,0.2767409,-7.206627,-6.560384,0.00048098285
1.2626263,0.08080808,-0.00040667877,-0.00031511672,-0.99487966,-9.271647,-7.7932734,0.00051447656
1.2626263,0.121212125,-0.00044142827,-0.0003386885,-2.1708784,-11.332072,-9.027863,0.0005563891
1.2626263,0.16161616,-0.00048359856,-0.00036614574,-3.2543104,-13.385446,-10.258507,0.00060657255
1.2626263,0.2020202,-0.0005329512,-0.00039749965,-4.2478228,-15.428562,-11.480437,0.0006648631
1.2626263,0.24242425,-0.00058919936,-0.00043283962,-5.1552067,-17.458927,-12.688518,0.0007310992
1.2626263,0.28282827,-0.0006522164,-0.00047227554,-5.9805017,-19.473484,-13.878482,0.00080525177
1.2626263,0.32323232,-0.00072142854,-0.00051578134,-6.726836,-21.468557,-15.045777,0.00088684243
1.2626263,0.36363637,-0.00079658255,-0.00056339055,-7.398762,-23.441456,-16.186508,0.0009756806
1.2626263,0.4040404,-0.00087728724,-0.000615092,-8.000914,-25.389133,-17.297224,0.0010714341
1.2626263,0.44444445,-0.0009631179,-0.0006710179,-8.537584,-27.308348,-18.374758,0.0011738233
1.2626263,0.4848485,-0.0010534748,-0.00073110685,-9.013827,-29.19645,-19.416338,0.0012823129
1.2626263,0.5252525,-0.0011480786,-0.00079528615,-9.434295,-31.050497,-20.419268,0.0013966261
1.2626263,0.56565654,-0.0012464039,-0.00086342543,-9.804298,-32.868225,-21.381868,0.001516254
1.2626263,0.6060606,-0.0013477094,-0.00093575194,-10.129252,-34.64772,-22.302422,0.001640717
1.2626263,0.64646465,-0.0014517643,-0.0010120086,-10.414498,-36.387,-23.179699,0.0017696838
1.2626263,0.68686867,-0.0015577488,-0.0010922197,-10.66529,-38.085094,-24.01302,0.0019025049
1.2626263,0.72727275,-0.0016654059,-0.0011762828,-10.886995,-39.740482,-24.801989,0.0020389257
1.2626263,0.7676768,-0.0017739683,-0.0012641214,-11.085353,-41.352962,-25.546547,0.0021782944
1.2626263,0.8080808,-0.0018830821,-0.0013556704,-11.265358,-42.922302,-26.247263,0.0023203103
1.2626263,0.8484849,-0.0019919835,-0.0014508665,-11.43266,-44.44938,-26.904463,0.0024643482
1.2626263,0.8888889,-0.0021002553,-0.0015495718,-11.59172,-45.934814,-27.519873,0.0026100278
1.2626263,0.9292929,-0.0022073835,-0.0016516298,-11.748,-47.379982,-28.094728,0.0027568864
1.2626263,0.969697,-0.0023128577,-0.001757104,-11.905618,-48.787365,-28.630703,0.002904604
1.2626263,1.010101,-0.0024161413,-0.0018657744,-12.068609,-50.15842,-29.13009,0.0030526798
1.2626263,1.050505,-0.0025167689,-0.001977615,-12.241155,-51.496906,-29.595407,0.0032007948
1.2626263,1.0909091,-0.0026143454,-0.0020925254,-12.426822,-52.805824,-30.029308,0.003348651
1.2626263,1.1313131,-0.0027084537,-0.0022103954,-12.627448,-54.08807,-30.434866,0.0034959363
1.2626263,1.1717172,-0.002798684,-0.0023310725,-12.846734,-55.348053,-30.815197,0.0036423248
1.2626263,1.2121212,-0.0028848015,-0.0024547167,-13.085898,-56.589577,-31.174385,0.0037878377
1.2626263,1.2525252,-0.0029663704,-0.0025810376,-13.346021,-57.816654,-31.51593,0.0039320616
1.2626263,1.2929293,-0.0030431822,-0.0027100146,-13.628109,-59.032944,-31.843784,0.00407494
1.2626263,1.3333334,-0.0031150505,-0.002841778,-13.932925,-60.24369,-32.162224,0.004216544
1.2626263,1.3737373,-0.0031817704,-0.002976073,-14.258884,-61.450893,-32.47579,0.0043566814
1.2626263,1.4141414,-0.0032431819,-0.0031130947,-14.606274,-62.659615,-32.789013,0.0044955076
1.2626263,1.4545455,-0.0032992847,-0.0032526478,-14.97225,-63.87129,-33.10654,0.0046330336
1.2626263,1.4949495,-0.003349986,-0.0033947527,-15.356398,-65.08972,-33.433266,0.0047693555
1.2626263,1.5353535,-0.0033954568,-0.0035393909,-15.756193,-66.316284,-33.774036,0.004904734
1.2626263,1.5757576,-0.003435582,-0.0036867037,-16.168877,-67.5523,-34.13359,0.005039346
1.2626263,1.6161616,-0.0034705214,-0.0038366336,-16.591993,-68.79806,-34.516884,0.00517342
1.2626263,1.6565657,-0.0035004131,-0.0039891247,-17.023314,-70.0532,-34.92855,0.0053071654
1.2626263,1.6969697,-0.0035254434,-0.004144294,-17.460283,-71.316696,-35.37361,0.005440949
1.2626263,1.7373737,-0.0035458691,-0.004302116,-17.900618,-72.58628,-35.85607,0.0055750688
1.2626263,1.7777778,-0.003561899,-0.0044625793,-18.341942,-73.85879,-36.379875,0.0057097934
1.2626263,1.8181819,-0.0035739094,-0.004625628,-18.78377,-75.12947,-36.949314,0.005845448
1.2626263,1.8585858,-0.003582064,-0.0047913827,-19.225594,-76.39472,-37.567142,0.005982352
1.2626263,1.8989899,-0.0035866834,-0.004959721,-19.667784,-77.64801,-38.236423,0.0061207134
1.2626263,1.939394,-0.0035882406,-0.005130697,-20.111958,-78.88304,-38.959637,0.0062609524
1.2626263,1.979798,-0.0035868809,-0.0053041726,-20.56031,-80.092514,-39.737568,0.006403121
1.2626263,2.020202,-0.0035829283,-0.005480122,-21.017384,-81.268616,-40.57164,0.006547451
1.2626263,2.060606,-0.0035767108,-0.005658405,-21.488098,-82.403404,-41.461052,0.0066940575
1.2626263,2.10101,-0.0035684966,-0.005838886,-21.979534,-83.48799,-42.40504,0.0068430076
1.2626263,2.1414142,-0.0035584755,-0.00602144,-22.500551,-84.5137,-43.40136,0.006994318
1.2626263,2.1818182,-0.003546957,-0.006205857,-23.060936,-85.47144,-44.446865,0.007147976
1.2626263,2.2222223,-0.0035337918,-0.0063919015,-23.671967,-86.35308,-45.537033,0.007303704
1.2626263,2.2626262,-0.003519304,-0.006579334,-24.347092,-87.14921,-46.66622,0.007461443
1.2626263,2.3030303,-0.0035033822,-0.0067679062,-25.100523,-87.852745,-47.828033,0.007620908
1.2626263,2.3434343,-0.0034859031,-0.0069571715,-25.947292,-88.45519,-49.013706,0.0077816295
1.2626263,2.3838384,-0.0034667477,-0.007146906,-26.903465,-88.949425,-50.21446,0.007943338
1.2626263,2.4242425,-0.0034457035,-0.007336594,-27.985865,-89.329185,-51.42002,0.008105461
1.2626263,2.4646466,-0.00342232,-0.00752588,-29.212093,-89.5892,-52.617832,0.008267475
1.2626263,2.5050504,-0.0033962019,-0.0077142697,-30.598803,-89.72405,-53.796074,0.008428769
1.2626263,2.5454545,-0.0033666454,-0.007901287,-32.160076,-89.72915,-54.940243,0.0085886335
1.2626263,2.5858586,-0.0033332035,-0.00808635,-33.913223,-89.6017,-56.03619,0.008746388
1.2626263,2.6262627,-0.0032948442,-0.008269122,-35.869114,-89.33905,-57.06838,0.00890137
1.2626263,2.6666667,-0.0032507367,-0.00844883,-38.03988,-88.938675,-58.020866,0.009052625
1.2626263,2.7070708,-0.003200017,-0.00862498,-40.432766,-88.399124,-58.877075,0.009199478
1.2626263,2.7474747,-0.0031414144,-0.008797051,-43.05022,-87.7189,-59.620655,0.0093411235
1.2626263,2.7878788,-0.0030736811,-0.008964401,-45.894295,-86.89711,-60.23475,0.009476708
1.2626263,2.8282828,-0.0029956922,-0.009126401,-48.959442,-85.93265,-60.70318,0.009605486
1.2626263,2.868687,-0.0029059388,-0.009282589,-52.235294,-84.82439,-61.009575,0.009726815
1.2626263,2.909091,-0.0028029121,-0.00943234,-55.70694,-83.57119,-61.1389,0.009839987
1.2626263,2.9494948,-0.0026851557,-0.009575071,-59.35171,-82.17033,-61.076813,0.009944448
1.2626263,2.989899,-0.0025511794,-0.009710303,-63.143967,-80.619934,-60.809917,0.0100398455
1.2626263,3.030303,-0.002399262,-0.009837443,-67.04746,-78.91619,-60.32618,0.010125796
1.2626263,3.070707,-0.0022278018,-0.009956151,-71.02189,-77.054985,-59.615078,0.010202355
1.2626263,3.1111112,-0.0020351075,-0.010065878,-75.021935,-75.03144,-58.667477,0.010269545
1.2626263,3.1515152,-0.0018195659,-0.010166189,-78.993675,-72.83886,-57.47628,0.01032774
1.2626263,3.191919,-0.0015796758,-0.010256851,-82.87968,-70.47068,-56.036327,0.010377782
1.2626263,3.2323232,-0.0013138093,-0.010337489,-86.6161,-67.91871,-54.34414,0.010420642
1.2626263,3.2727273,-0.0010205172,-0.010407783,-90.135864,-65.173935,-52.397953,0.010457696
1.2626263,3.3131313,-0.00069830194,-0.010467544,-93.367516,-62.226948,-50.198097,0.0104908105
1.2626263,3.3535354,-0.00034584478,-0.010516617,-96.23773,-59.06829,-47.746876,0.010522302
1.2626263,3.3939395,3.8150698e-05,-0.010554923,-98.67078,-55.686993,-45.048103,0.010554992
1.2626263,3.4343433,0.00045469776,-0.010582276,-100.59063,-52.0734,-42.10795,0.010592041
1.2626263,3.4747474,0.00090483204,-0.010598874,-101.922554,-48.21809,-38.932976,0.010637427
1.2626263,3.5151515,0.0013894774,-0.010604598,-102.592354,-44.11127,-35.53186,0.010695239
1.2626263,3.5555556,0.0019094758,-0.010599606,-102.53004,-39.74546,-31.914253,0.010770225
1.2626263,3.5959597,0.0024651624,-0.010584036,-101.667076,-35.11252,-28.090551,0.010867329
1.2626263,3.6363637,0.0030572154,-0.010558143,-99.94157,-30.206726,-24.072279,0.010991858
1.2626263,3.6767676,0.0036858805,-0.0105222985,-97.29555,-25.024601,-19.872149,0.011149192
1.2626263,3.7171717,0.0043513663,-0.010476563,-93.68017,-19.563282,-15.501534,0.011344283
1.2626263,3.7575758,0.0050535575,-0.010421472,-89.0536,-13.823827,-10.973502,0.01158212
1.2626263,3.7979798,0.0057925843,-0.010357371,-83.376175,-7.806507,-6.3005047,0.011867146
1.2626263,3.838384,0.0065679885,-0.010284724,-76.62175,-1.5154285,-1.4952025,0.012203033
1.2626263,3.878788,0.007379461,-0.010204043,-68.77194,5.0416775,3.4296598,0.012592813
1.2626263,3.9191918,0.008226585,-0.0101157315,-59.813683,11.857754,8.463347,0.013038586
1.2626263,3.959596,0.009108786,-0.010020379,-49.744843,18.921759,13.593555,0.013541712
1.2626263,4.0,0.010025237,-0.009918632,-38.570633,26.220947,18.809399,0.014102646
1.3131313,0.04040404,-0.00036849082,-0.0003238935,0.79729074,-7.3957825,-6.7551346,0.0004906042
1.3131313,0.08080808,-0.00039660558,-0.00034483708,-0.4789308,-9.55817,-7.9495096,0.0005255555
1.3131313,0.121212125,-0.00043218955,-0.00036976486,-1.657774,-11.714746,-9.14525,0.0005687828
1.3131313,0.16161616,-0.0004748553,-0.00039879605,-2.7418792,-13.863342,-10.337385,0.00062010146
1.3131313,0.2020202,-0.0005245246,-0.0004319474,-3.7345736,-16.001423,-11.5204935,0.0006794885
1.3131313,0.24242425,-0.00058087334,-0.00046937726,-4.638916,-18.12628,-12.68971,0.0007468125
1.3131313,0.28282827,-0.00064365193,-0.0005110912,-5.4589005,-20.235367,-13.840674,0.0008218893
1.3131313,0.32323232,-0.0007124916,-0.0005571898,-6.1990366,-22.326122,-14.96905,0.0009044914
1.3131313,0.36363637,-0.00078704953,-0.00060756505,-6.862822,-24.395456,-16.07073,0.0009942747
1.3131313,0.4040404,-0.0008670017,-0.00066231936,-7.455016,-26.440434,-17.142492,0.0010910357
1.3131313,0.44444445,-0.00095178187,-0.0007215198,-7.9798465,-28.458595,-18.18095,0.0011943532
1.3131313,0.4848485,-0.0010411106,-0.0007850677,-8.442403,-30.446722,-19.18367,0.0013039336
1.3131313,0.5252525,-0.0011343956,-0.0008530542,-8.847866,-32.402878,-20.147884,0.0014193502
1.3131313,0.56565654,-0.0012313388,-0.00092532113,-9.200991,-34.323933,-21.07187,0.0015402643
1.3131313,0.6060606,-0.0013312437,-0.0010019541,-9.50718,-36.207973,-21.954332,0.0016661697
1.3131313,0.64646465,-0.0014337152,-0.0010828134,-9.772466,-38.053772,-22.793863,0.0017966703
1.3131313,0.68686867,-0.001538273,-0.001167966,-10.001974,-39.859188,-23.589813,0.0019314317
1.3131313,0.72727275,-0.0016442277,-0.0012571942,-10.200621,-41.622375,-24.34215,0.0020697878
1.3131313,0.7676768,-0.0017512403,-0.0013505407,-10.374917,-43.343624,-25.050909,0.002211516
1.3131313,0.8080808,-0.0018586852,-0.0014478713,-10.529851,-45.021774,-25.71648,0.002356065
1.3131313,0.8484849,-0.0019660108,-0.0015491284,-10.670591,-46.65671,-26.339966,0.0025029976
1.3131313,0.8888889,-0.0020726882,-0.0016541556,-10.802929,-48.24911,-26.922447,0.002651842
1.3131313,0.9292929,-0.00217833,-0.0017628465,-10.931155,-49.799145,-27.465662,0.0028022758
1.3131313,0.969697,-0.0022822805,-0.0018752757,-11.060925,-51.309433,-27.971638,0.0029538895
1.3131313,1.010101,-0.002384171,-0.0019911584,-11.196255,-52.781013,-28.44258,0.0031062812
1.3131313,1.050505,-0.002483461,-0.0021104682,-11.341198,-54.215954,-28.881014,0.0032590881
1.3131313,1.0909091,-0.0025797933,-0.0022331066,-11.4999485,-55.617413,-29.289957,0.003412052
1.3131313,1.1313131,-0.0026727729,-0.002358919,-11.6755495,-56.987846,-29.672598,0.003564858
1.3131313,1.1717172,-0.0027619526,-0.0024879035,-11.871154,-58.331013,-30.031677,0.0037172632
1.3131313,1.2121212,-0.0028469972,-0.002619937,-12.089641,-59.65107,-30.371485,0.003869039
1.3131313,1.2525252,-0.0029276684,-0.0027549062,-12.331668,-60.950584,-30.695908,0.0040200436
1.3131313,1.2929293,-0.0030036978,-0.0028928425,-12.599262,-62.234447,-31.008825,0.0041702203
1.3131313,1.3333334,-0.0030748062,-0.00303353,-12.893421,-63.506416,-31.314037,0.0043193446
1.3131313,1.3737373,-0.0031409264,-0.00317703,-13.213998,-64.77001,-31.616547,0.0044675427
1.3131313,1.4141414,-0.0032018088,-0.0033233166,-13.561198,-66.029945,-31.920649,0.00461476
1.3131313,1.4545455,-0.0032574087,-0.0034722835,-13.933825,-67.28923,-32.230907,0.004761036
1.3131313,1.4949495,-0.0033077411,-0.0036238544,-14.3307705,-68.5504,-32.551876,0.0049064723
1.3131313,1.5353535,-0.0033527836,-0.0037781745,-14.750316,-69.81715,-32.88888,0.005051313
1.3131313,1.5757576,-0.0033925697,-0.00393516,-15.190853,-71.09139,-33.246178,0.0051956726
1.3131313,1.6161616,-0.0034271963,-0.004094813,-15.649976,-72.3745,-33.62852,0.0053397724
1.3131313,1.6565657,-0.0034567565,-0.004257085,-16.125252,-73.667366,-34.04078,0.0054837884
1.3131313,1.6969697,-0.0034815632,-0.004422048,-16.614859,-74.96961,-34.48741,0.005628125
1.3131313,1.7373737,-0.0035017207,-0.0045897122,-17.11602,-76.28084,-34.973038,0.005772998
1.3131313,1.7777778,-0.0035175793,-0.0047600605,-17.62687,-77.59915,-35.50131,0.0059187445
1.3131313,1.8181819,-0.0035292879,-0.0049330555,-18.146564,-78.92189,-36.076267,0.006065551
1.3131313,1.8585858,-0.0035372563,-0.005108813,-18.672972,-80.2453,-36.701397,0.0062138676
1.3131313,1.8989899,-0.0035417452,-0.005287217,-19.206656,-81.56476,-37.37973,0.006363853
1.3131313,1.939394,-0.003543038,-0.005468264,-19.74737,-82.87557,-38.113476,0.0065157525
1.3131313,1.979798,-0.0035415702,-0.0056520067,-20.29852,-84.17129,-38.904755,0.0066699246
1.3131313,2.020202,-0.0035376474,-0.005838314,-20.861744,-85.44515,-39.75437,0.0068264822
1.3131313,2.060606,-0.003531456,-0.006027039,-21.43997,-86.6886,-40.662945,0.006985441
1.3131313,2.10101,-0.0035234354,-0.006218165,-22.041128,-87.89516,-41.6295,0.0071470398
1.3131313,2.1414142,-0.0035137497,-0.006411547,-22.670576,-89.055595,-42.652973,0.0073112496
1.3131313,2.1818182,-0.0035026632,-0.0066070743,-23.337807,-90.16114,-43.730637,0.0074781068
1.3131313,2.2222223,-0.0034903176,-0.006804485,-24.051788,-91.202545,-44.858837,0.0076474394
1.3131313,2.2626262,-0.0034768581,-0.0070035644,-24.824596,-92.17093,-46.032898,0.007819109
1.3131313,2.3030303,-0.0034623407,-0.007204104,-25.669357,-93.05812,-47.246853,0.00799293
1.3131313,2.3434343,-0.003446728,-0.0074057244,-26.599691,-93.854706,-48.493515,0.008168518
1.3131313,2.3838384,-0.0034298226,-0.0076081716,-27.631693,-94.552795,-49.764225,0.008345535
1.3131313,2.4242425,-0.0034114793,-0.007811092,-28.780708,-95.14466,-51.049347,0.008523576
1.3131313,2.4646466,-0.0033915602,-0.008013967,-30.063725,-95.62273,-52.338184,0.008702089
1.3131313,2.5050504,-0.0033693872,-0.008216536,-31.498049,-95.98108,-53.618572,0.008880554
1.3131313,2.5454545,-0.0033446439,-0.008418161,-33.09932,-96.212524,-54.877148,0.00905826
1.3131313,2.5858586,-0.003316503,-0.008618467,-34.883404,-96.31309,-56.09959,0.009234563
1.3131313,2.6262627,-0.003284417,-0.00881692,-36.865852,-96.277626,-57.270836,0.009408798
1.3131313,2.6666667,-0.0032473989,-0.009012844,-39.058067,-96.10181,-58.374767,0.009580029
1.3131313,2.7070708,-0.003204558,-0.009205762,-41.47237,-95.78302,-59.394745,0.009747577
1.3131313,2.7474747,-0.0031547695,-0.009395033,-44.11332,-95.31724,-60.313915,0.009910561
1.3131313,2.7878788,-0.0030967556,-0.009580171,-46.987484,-94.70348,-61.115067,0.010068245
1.3131313,2.8282828,-0.003029365,-0.0097604375,-50.091496,-93.93738,-61.780464,0.010219745
1.3131313,2.868687,-0.0029510409,-0.0099352095,-53.420185,-93.017006,-62.293068,0.010364219
1.3131313,2.909091,-0.0028603561,-0.010104001,-56.963634,-91.93996,-62.63647,0.01050107
1.3131313,2.9494948,-0.0027556457,-0.010266099,-60.703217,-90.70243,-62.794,0.010629505
1.3131313,2.989899,-0.0026354156,-0.010420917,-64.61601,-89.30096,-62.751354,0.010748996
1.3131313,3.030303,-0.0024978518,-0.010567926,-68.67151,-87.73114,-62.493618,0.010859112
1.3131313,3.070707,-0.002341237,-0.010706566,-72.8333,-85.987495,-62.00905,0.01095956
1.3131313,3.1111112,-0.0021637343,-0.010836318,-77.05656,-84.06346,-61.285793,0.011050228
1.3131313,3.1515152,-0.0019636676,-0.010956563,-81.29113,-81.951935,-60.31395,0.0111311395
1.3131313,3.191919,-0.0017392635,-0.011067092,-85.47894,-79.64437,-59.086933,0.011202927
1.3131313,3.2323232,-0.0014886931,-0.011167314,-89.556046,-77.1306,-57.59851,0.011266104
1.3131313,3.2727273,-0.0012102723,-0.011256944,-93.45551,-74.40136,-55.845592,0.0113218175
1.3131313,3.3131313,-0.0009025149,-0.0113356095,-97.10054,-71.44354,-53.82638,0.01137148
1.3131313,3.3535354,-0.0005636625,-0.011403104,-100.41368,-68.24579,-51.54134,0.011417027
1.3131313,3.3939395,-0.00019244105,-0.011459153,-103.31464,-64.79536,-48.992638,0.011460769
1.3131313,3.4343433,0.00021268427,-0.011503622,-105.71973,-61.079063,-46.185307,0.011505587
1.3131313,3.4747474,0.0006529391,-0.01153647,-107.5422,-57.08282,-43.12518,0.011554932
1.3131313,3.5151515,0.001129292,-0.011557564,-108.70025,-52.795204,-39.82043,0.011612604
1.3131313,3.5555556,0.0016427673,-0.011566848,-109.11208,-48.203697,-36.280094,0.011682921
1.3131313,3.5959597,0.002194278,-0.011564588,-108.69724,-43.297867,-32.51502,0.01177092
1.3131313,3.6363637,0.0027842335,-0.011550831,-107.38134,-38.068275,-28.537066,0.011881651
1.3131313,3.6767676,0.003413532,-0.011525681,-105.0904,-32.50531,-24.35879,0.012020546
1.3131313,3.7171717,0.0040821433,-0.01148946,-101.76382,-26.604778,-19.993385,0.012193096
1.3131313,3.7575758,0.004790496,-0.011442414,-97.34125,-20.361591,-15.454134,0.0124047445
1.3131313,3.7979798,0.0055383854,-0.011384845,-91.77728,-13.77588,-10.7554,0.012660506
1.3131313,3.838384,0.0063257776,-0.011317253,-85.0273,-6.847716,-5.9107785,0.0129651725
1.3131313,3.878788,0.0071525313,-0.011239985,-77.0608,0.41856122,-0.93398046,0.013322761
1.3131313,3.9191918,0.008018013,-0.011153482,-67.85535,8.016592,4.161583,0.0137364
1.3131313,3.959596,0.008921895,-0.01105831,-57.39749,15.936646,9.363317,0.014208674
1.3131313,4.0,0.009863216,-0.010954954,-45.684326,24.166718,14.659046,0.014740897
1.3636364,0.04040404,-0.00035540387,-0.00035238266,1.3034691,-7.604699,-6.88514,0.00050048524
1.3636364,0.08080808,-0.00038453564,-0.00037448853,0.027566085,-9.856235,-8.039146,0.00053675816
1.3636364,0.121212125,-0.00042084977,-0.0004008077,-1.1496913,-12.100755,-9.194515,0.0005811724
1.3636364,0.16161616,-0.00046389922,-0.00043141283,-2.2309928,-14.335959,-10.34592,0.00063349784
1.3636364,0.2020202,-0.00051374733,-0.00046639144,-3.219238,-16.559835,-11.488349,0.00069387123
1.3636364,0.24242425,-0.00057006255,-0.00050581247,-4.1183467,-18.77032,-12.616798,0.00076211384
1.3636364,0.28282827,-0.00063250214,-0.00054974854,-4.9320736,-20.965319,-13.72682,0.0008380229
1.3636364,0.32323232,-0.00070076436,-0.0005982984,-5.664136,-23.14221,-14.8141575,0.00092142913
1.3636364,0.36363637,-0.0007745847,-0.00065133534,-6.3189297,-25.298414,-15.874882,0.0010120372
1.3636364,0.4040404,-0.0008535795,-0.00070903264,-6.901254,-27.43207,-16.905478,0.0011096509
1.3636364,0.44444445,-0.00093731284,-0.0007713884,-7.4153147,-29.540012,-17.902853,0.0012139174
1.3636364,0.4848485,-0.001025293,-0.00083824806,-7.8658385,-31.619576,-18.864262,0.0013243435
1.3636364,0.5252525,-0.0011172406,-0.00090988167,-8.258217,-33.669136,-19.78759,0.0014408717
1.3636364,0.56565654,-0.001212582,-0.0009859763,-8.597706,-35.68616,-20.670633,0.0015628514
1.3636364,0.6060606,-0.0013109222,-0.0010666884,-8.889595,-37.668262,-21.51215,0.0016900714
1.3636364,0.64646465,-0.0014117025,-0.0011519194,-9.139034,-39.61358,-22.31111,0.0018220379
1.3636364,0.68686867,-0.0015144758,-0.0012416467,-9.352203,-41.520603,-23.067005,0.0019583981
1.3636364,0.72727275,-0.0016186126,-0.0013358165,-9.534094,-43.387737,-23.779623,0.0020986453
1.3636364,0.7676768,-0.0017238595,-0.001434287,-9.690251,-45.21371,-24.44919,0.0022425144
1.3636364,0.8080808,-0.0018294007,-0.0015371162,-9.826776,-46.997776,-25.076328,0.002389442
1.3636364,0.8484849,-0.0019349605,-0.0016440004,-9.948928,-48.739597,-25.662008,0.0025390568
1.3636364,0.8888889,-0.0020398311,-0.0017550569,-10.061753,-50.438847,-26.2077,0.002690936
1.3636364,0.9292929,-0.0021437146,-0.0018701404,-10.170532,-52.095886,-26.71533,0.0028448089
1.3636364,0.969697,-0.0022459738,-0.001989074,-10.28025,-53.711655,-27.186792,0.0030001358
1.3636364,1.010101,-0.0023462437,-0.0021117888,-10.395833,-55.28696,-27.624657,0.0031566615
1.3636364,1.050505,-0.0024439879,-0.0022382345,-10.521709,-56.82416,-28.031342,0.0033140264
1.3636364,1.0909091,-0.002538938,-0.002368236,-10.661963,-58.32443,-28.410198,0.0034719948
1.3636364,1.1313131,-0.0026304834,-0.0025017578,-10.82027,-59.791084,-28.764238,0.0036301839
1.3636364,1.1717172,-0.0027184188,-0.0026386082,-10.999711,-61.226315,-29.09724,0.0037884105
1.3636364,1.2121212,-0.0028023832,-0.0027787052,-11.203659,-62.63342,-29.412468,0.0039464612
1.3636364,1.2525252,-0.0028820075,-0.0029220767,-11.434143,-64.01652,-29.71407,0.0041042054
1.3636364,1.2929293,-0.0029570907,-0.0030685663,-11.692862,-65.37855,-30.006315,0.004261512
1.3636364,1.3333334,-0.0030273944,-0.0032179859,-11.981761,-66.72388,-30.293177,0.004418207
1.3636364,1.3737373,-0.0030927695,-0.0033704285,-12.301005,-68.05605,-30.579138,0.0045743864
1.3636364,1.4141414,-0.0031529926,-0.003525719,-12.65104,-69.37901,-30.86873,0.0047299108
1.3636364,1.4545455,-0.0032081418,-0.003683908,-13.031999,-70.69701,-31.166708,0.0048850127
1.3636364,1.4949495,-0.0032579526,-0.0038449373,-13.442452,-72.013145,-31.477407,0.005039623
1.3636364,1.5353535,-0.003302589,-0.0040087476,-13.882557,-73.33096,-31.805794,0.0051939534
1.3636364,1.5757576,-0.0033421032,-0.0041752867,-14.349462,-74.65315,-32.15655,0.005348147
1.3636364,1.6161616,-0.0033764616,-0.0043445453,-14.842381,-75.98255,-32.534176,0.0055023236
1.3636364,1.6565657,-0.0034058206,-0.004516581,-15.358418,-77.320206,-32.94345,0.005656776
1.3636364,1.6969697,-0.003430456,-0.0046913438,-15.896609,-78.66829,-33.38867,0.0058117756
1.3636364,1.7373737,-0.003450513,-0.004868867,-16.454056,-80.02646,-33.8745,0.005967571
1.3636364,1.7777778,-0.0034662448,-0.0050490983,-17.029259,-81.394066,-34.40458,0.0061243977
1.3636364,1.8181819,-0.003477946,-0.0052320696,-17.619633,-82.770386,-34.983257,0.006282568
1.3636364,1.8585858,-0.003485851,-0.0054178834,-18.22448,-84.152824,-35.613758,0.006442408
1.3636364,1.8989899,-0.0034903102,-0.0056064073,-18.843061,-85.53841,-36.299232,0.006604095
1.3636364,1.939394,-0.0034916438,-0.0057976115,-19.474825,-86.92272,-37.04232,0.0067678564
1.3636364,1.979798,-0.0034902804,-0.0059915353,-20.12148,-88.301414,-37.845207,0.006934014
1.3636364,2.020202,-0.0034864396,-0.006188195,-20.783913,-89.66848,-38.709084,0.0071027474
1.3636364,2.060606,-0.003480453,-0.00638745,-21.465206,-91.01753,-39.634926,0.007274137
1.3636364,2.10101,-0.003472779,-0.0065891966,-22.17017,-92.34093,-40.622593,0.0074483356
1.3636364,2.1414142,-0.003463585,-0.00679351,-22.904163,-93.631546,-41.671036,0.007625497
1.3636364,2.1818182,-0.0034531765,-0.0070001,-23.673494,-94.88003,-42.778683,0.0078054997
1.3636364,2.2222223,-0.0034417324,-0.0072088595,-24.48716,-96.07795,-43.942505,0.007988315
1.3636364,2.2626262,-0.003429424,-0.0074195806,-25.355783,-97.21705,-45.15833,0.0081738075
1.3636364,2.3030303,-0.0034162812,-0.0076320767,-26.288862,-98.28587,-46.42132,0.008361792
1.3636364,2.3434343,-0.0034024268,-0.00784608,-27.301239,-99.27762,-47.724827,0.008552045
1.3636364,2.3838384,-0.0033878274,-0.008061321,-28.406767,-100.18259,-49.061573,0.008744271
1.3636364,2.4242425,-0.0033721924,-0.008277459,-29.619751,-100.991264,-50.422844,0.00893801
1.3636364,2.4646466,-0.003355436,-0.008494036,-30.956665,-101.69511,-51.797974,0.009132776
1.3636364,2.5050504,-0.0033370927,-0.008710824,-32.435474,-102.2875,-53.176224,0.009328164
1.3636364,2.5454545,-0.0033168346,-0.008927189,-34.07049,-102.75916,-54.5451,0.009523449
1.3636364,2.5858586,-0.003294006,-0.009142833,-35.88,-103.10417,-55.890564,0.00971812
1.3636364,2.6262627,-0.003267862,-0.00935711,-37.87896,-103.3157,-57.19781,0.009911328
1.3636364,2.6666667,-0.0032376982,-0.009569526,-40.082256,-103.38819,-58.451202,0.0101024015
1.3636364,2.7070708,-0.0032025613,-0.009779496,-42.503056,-103.31646,-59.634438,0.010290527
1.3636364,2.7474747,-0.0031613223,-0.0099865105,-45.149662,-103.09504,-60.730034,0.010474939
1.3636364,2.7878788,-0.0031128228,-0.0101899095,-48.031044,-102.72038,-61.720432,0.0106547605
1.3636364,2.8282828,-0.0030557364,-0.010389015,-51.14901,-102.18786,-62.58766,0.010829088
1.3636364,2.868687,-0.0029888079,-0.010583149,-54.504276,-101.493484,-63.31318,0.010997091
1.3636364,2.909091,-0.0029102527,-0.010771783,-58.087635,-100.632996,-63.879715,0.011157996
1.3636364,2.9494948,-0.0028186664,-0.010954194,-61.88918,-99.602295,-64.26946,0.0113110235
1.3636364,2.989899,-0.0027122386,-0.011129852,-65.88824,-98.395645,-64.46557,0.01145556
1.3636364,3.030303,-0.0025892407,-0.011297939,-70.06135,-97.00798,-64.45215,0.011590841
1.3636364,3.070707,-0.0024477467,-0.011457993,-74.374146,-95.43221,-64.214645,0.01171653
1.3636364,3.1111112,-0.0022859536,-0.011609385,-78.78793,-93.66168,-63.73948,0.011832303
1.3636364,3.1515152,-0.002101872,-0.011751467,-83.25388,-91.68691,-63.01479,0.011937958
1.3636364,3.191919,-0.0018936805,-0.011883773,-87.719734,-89.49949,-62.030373,0.012033706
1.3636364,3.2323232,-0.0016593225,-0.012005765,-92.121315,-87.087036,-60.77847,0.01211989
1.3636364,3.2727273,-0.0013970695,-0.012116989,-96.38844,-84.43707,-59.253254,0.012197264
1.3636364,3.3131313,-0.0011049435,-0.012217017,-100.447815,-81.53704,-57.451042,0.012266883
1.3636364,3.3535354,-0.000781022,-0.012305619,-104.21557,-78.371635,-55.36973,0.012330379
1.3636364,3.3939395,-0.00042405725,-0.012382213,-107.609436,-74.92589,-53.010284,0.012389472
1.3636364,3.4343433,-3.201142e-05,-0.012446716,-110.536804,-71.18346,-50.375454,0.012446757
1.3636364,3.4747474,0.00039657205,-0.012498863,-112.90479,-67.12731,-47.470413,0.012505152
1.3636364,3.5151515,0.0008628182,-0.012538511,-114.62191,-62.741966,-44.30189,0.012568163
1.3636364,3.5555556,0.0013680644,-0.012565613,-115.5938,-58.010944,-40.878563,0.012639866
1.3636364,3.5959597,0.0019134358,-0.01258008,-115.72799,-52.91892,-37.21104,0.012724765
1.3636364,3.6363637,0.0024997406,-0.012581898,-114.93363,-47.450623,-33.310585,0.012827816
1.3636364,3.6767676,0.0031277277,-0.012571262,-113.128006,-41.595173,-29.191107,0.01295451
1.3636364,3.7171717,0.0037979484,-0.0125482045,-110.22971,-35.340424,-24.866045,0.013110372
1.3636364,3.7575758,0.004510764,-0.012512986,-106.164856,-28.678528,-20.349833,0.013301196
1.3636364,3.7979798,0.0052664503,-0.012465803,-100.869446,-21.603174,-15.657515,0.013532618
1.3636364,3.838384,0.006064873,-0.012407104,-94.28456,-14.111361,-10.804704,0.013810101
1.3636364,3.878788,0.006905962,-0.012336999,-86.36571,-6.203864,-5.8066926,0.014138383
1.3636364,3.9191918,0.007789422,-0.012256149,-77.073006,2.11682,-0.6783431,0.014521993
1.3636364,3.959596,0.008714672,-0.012164906,-66.38216,10.843167,4.5661063,0.014964306
1.3636364,4.0,0.009681221,-0.012063697,-54.276077,19.965965,9.9126425,0.015467994
1.4141414,0.04040404,-0.00034056976,-0.00038031116,1.7848454,-7.8327646,-6.948614,0.0005105138
1.4141414,0.08080808,-0.0003706105,-0.00040359423,0.51370305,-10.165679,-8.060694,0.000547942
1.4141414,0.121212125,-0.00040745363,-0.0004313048,-0.6579151,-12.489636,-9.174019,0.00059333147
1.4141414,0.16161616,-0.00045088306,-0.00046346337,-1.7323837,-14.802908,-10.283362,0.0006466017
1.4141414,0.2020202,-0.00050078705,-0.0005002059,-2.713644,-17.104156,-11.38338,0.00070780906
1.4141414,0.24242425,-0.0005568266,-0.0005416088,-3.6044118,-19.391447,-12.469344,0.0007767856
1.4141414,0.28282827,-0.0006188229,-0.00058774836,-4.4095397,-21.663095,-13.536906,0.0008534576
1.4141414,0.32323232,-0.0006864704,-0.0006385967,-5.1325374,-23.917122,-14.581556,0.0009375753
1.4141414,0.36363637,-0.0007593632,-0.0006942786,-5.777306,-26.151148,-15.599694,0.0010289097
1.4141414,0.4040404,-0.00083724037,-0.0007546693,-6.3492804,-28.36363,-16.587502,0.0011271634
1.4141414,0.44444445,-0.0009196773,-0.00081990846,-6.8530245,-30.552292,-17.54214,0.0012320942
1.4141414,0.4848485,-0.001006309,-0.0008900594,-7.2927794,-32.714943,-18.460833,0.001343452
1.4141414,0.5252525,-0.0010966733,-0.00096497126,-7.6741567,-34.8492,-19.34136,0.0014607745
1.4141414,0.56565654,-0.0011903085,-0.0010447279,-8.002442,-36.953545,-20.181696,0.0015837583
1.4141414,0.6060606,-0.0012868457,-0.001129318,-8.282635,-39.025658,-20.980713,0.001712113
1.4141414,0.64646465,-0.0013857968,-0.0012187008,-8.520846,-41.06372,-21.737362,0.0018454442
1.4141414,0.68686867,-0.0014866255,-0.0013127103,-8.721687,-43.065754,-22.450964,0.0019832458
1.4141414,0.72727275,-0.0015888512,-0.0014114268,-8.891367,-45.030216,-23.121712,0.0021252232
1.4141414,0.7676768,-0.00169193,-0.0015147813,-9.035174,-46.956177,-23.749794,0.0022709446
1.4141414,0.8080808,-0.0017955452,-0.0016226023,-9.159574,-48.84255,-24.335884,0.002420087
1.4141414,0.8484849,-0.0018990636,-0.0017348956,-9.269201,-50.68808,-24.881094,0.002572218
1.4141414,0.8888889,-0.0020019524,-0.0018516053,-9.369191,-52.49219,-25.387339,0.0027269498
1.4141414,0.9292929,-0.0021039061,-0.0019725524,-9.46558,-54.255447,-25.856033,0.0028839875
1.4141414,0.969697,-0.0022043325,-0.002097685,-9.563149,-55.977425,-26.2897,0.0030429203
1.4141414,1.010101,-0.0023027845,-0.0022268258,-9.666468,-57.65875,-26.690645,0.0032033685
1.4141414,1.050505,-0.0023988895,-0.002359962,-9.780796,-59.30108,-27.062061,0.0033651288
1.4141414,1.0909091,-0.0024921,-0.0024969392,-9.909859,-60.9051,-27.406446,0.003527785
1.4141414,1.1313131,-0.0025821514,-0.0026376955,-10.057847,-62.47353,-27.72797,0.003691198
1.4141414,1.1717172,-0.002668701,-0.0027820207,-10.228871,-64.00812,-28.029583,0.0038550752
1.4141414,1.2121212,-0.0027512647,-0.0029299967,-10.425077,-65.51134,-28.31575,0.004019246
1.4141414,1.2525252,-0.0028298162,-0.003081277,-10.650321,-66.986786,-28.589924,0.0041835546
1.4141414,1.2929293,-0.0029038042,-0.003235899,-10.905693,-68.436966,-28.856655,0.004347772
1.4141414,1.3333334,-0.0029732026,-0.0033938512,-11.193693,-69.86656,-29.120008,0.0045120018
1.4141414,1.3737373,-0.0030377023,-0.0035549179,-11.515716,-71.278366,-29.384554,0.0046760105
1.4141414,1.4141414,-0.003097266,-0.003719058,-11.872234,-72.67656,-29.654858,0.004839881
1.4141414,1.4545455,-0.0031517744,-0.0038862564,-12.26331,-74.0651,-29.93548,0.005003666
1.4141414,1.4949495,-0.0032011569,-0.0040563624,-12.689708,-75.44793,-30.2311,0.0051673474
1.4141414,1.5353535,-0.0032454208,-0.004229462,-13.149646,-76.828064,-30.5464,0.0053311447
1.4141414,1.5757576,-0.0032845773,-0.004405353,-13.642709,-78.20951,-30.88616,0.005495051
1.4141414,1.6161616,-0.0033186972,-0.004584171,-14.167451,-79.595276,-31.254753,0.0056593614
1.4141414,1.6565657,-0.0033479407,-0.0047658216,-14.722117,-80.988014,-31.657122,0.005824239
1.4141414,1.6969697,-0.0033724904,-0.004950309,-15.305,-82.38976,-32.097412,0.005989929
1.4141414,1.7373737,-0.0033924766,-0.005137574,-15.914131,-83.80172,-32.580166,0.006156587
1.4141414,1.7777778,-0.0034082495,-0.0053276643,-16.547329,-85.22477,-33.10914,0.006324569
1.4141414,1.8181819,-0.0034199804,-0.0055205673,-17.20323,-86.65903,-33.68865,0.0064940685
1.4141414,1.8585858,-0.0034279749,-0.00571635,-17.879442,-88.10363,-34.321938,0.006665408
1.4141414,1.8989899,-0.003432624,-0.005914962,-18.575745,-89.55622,-35.012245,0.0068388362
1.4141414,1.939394,-0.003434267,-0.006116368,-19.291538,-91.01522,-35.762417,0.0070145666
1.4141414,1.979798,-0.003432978,-0.006320594,-20.026346,-92.47635,-36.574554,0.0071927216
1.4141414,2.020202,-0.0034294762,-0.0065276492,-20.780886,-93.934975,-37.450848,0.007373704
1.4141414,2.060606,-0.003424,-0.0067374147,-21.557533,-95.386086,-38.3919,0.007557548
1.4141414,2.10101,-0.0034168027,-0.0069499295,-22.360275,-96.8238,-39.398136,0.0077444213
1.4141414,2.1414142,-0.0034082495,-0.007165076,-23.192085,-98.240486,-40.46941,0.007934386
1.4141414,2.1818182,-0.003398601,-0.0073827915,-24.05769,-99.62844,-41.604122,0.00812749
1.4141414,2.2222223,-0.0033880807,-0.007602917,-24.96605,-100.97975,-42.800064,0.008323668
1.4141414,2.2626262,-0.003376957,-0.007825352,-25.924343,-102.28494,-44.054253,0.008522909
1.4141414,2.3030303,-0.003365375,-0.008049797,-26.94315,-103.535614,-45.36226,0.008724963
1.4141414,2.3434343,-0.0033532903,-0.008276204,-28.033688,-104.72226,-46.718605,0.008929731
1.4141414,2.3838384,-0.0033407845,-0.008504208,-29.207989,-105.834854,-48.11646,0.0091368705
1.4141414,2.4242425,-0.0033278055,-0.008733628,-30.481817,-106.8643,-49.548256,0.009346152
1.4141414,2.4646466,-0.003314171,-0.008963972,-31.868856,-107.800514,-51.004807,0.009557014
1.4141414,2.5050504,-0.0032994598,-0.009194953,-33.385643,-108.6347,-52.475056,0.009769012
1.4141414,2.5454545,-0.0032834448,-0.0094262455,-35.048855,-109.35799,-53.94795,0.009981739
1.4141414,2.5858586,-0.0032655746,-0.009657254,-36.875706,-109.96182,-55.410137,0.010194437
1.4141414,2.6262627,-0.003245134,-0.0098876525,-38.88158,-110.43879,-56.84824,0.010406564
1.4141414,2.6666667,-0.0032214485,-0.010116784,-41.082985,-110.780014,-58.24615,0.010617299
1.4141414,2.7070708,-0.0031935908,-0.010344226,-43.494514,-110.979385,-59.588432,0.010825989
1.4141414,2.7474747,-0.003160555,-0.010569248,-46.12863,-111.03007,-60.857597,0.011031687
1.4141414,2.7878788,-0.0031212457,-0.010791384,-48.99639,-110.92623,-62.03604,0.011233706
1.4141414,2.8282828,-0.003074251,-0.011009945,-52.103752,-110.661736,-63.105225,0.011431093
1.4141414,2.868687,-0.0030182302,-0.011224264,-55.453716,-110.23083,-64.04646,0.011622987
1.4141414,2.909091,-0.0029517636,-0.01143359,-59.04544,-109.62776,-64.84101,0.011808467
1.4141414,2.9494948,-0.0028729849,-0.011637362,-62.87109,-108.84639,-65.47059,0.011986752
1.4141414,2.989899,-0.0027803406,-0.011834895,-66.91882,-107.88148,-65.916306,0.012157098
1.4141414,3.030303,-0.0026719086,-0.012025449,-71.16805,-106.72537,-66.16103,0.012318706
1.4141414,3.070707,-0.002545774,-0.012208352,-75.591484,-105.37058,-66.1873,0.01247096
1.4141414,3.1111112,-0.0023999736,-0.012382958,-80.15448,-103.80829,-65.98028,0.012613386
1.4141414,3.1515152,-0.0022323541,-0.01254865,-84.81591,-102.03015,-65.52545,0.012745666
1.4141414,3.191919,-0.0020409636,-0.012704754,-89.52303,-100.02329,-64.81025,0.012867645
1.4141414,3.2323232,-0.0018236525,-0.012850763,-94.21826,-97.77715,-63.824394,0.012979516
1.4141414,3.2727273,-0.0015783273,-0.012985967,-98.83318,-95.27654,-62.559216,0.013081531
1.4141414,3.3131313,-0.0013029799,-0.013109978,-103.29437,-92.50679,-61.00842,0.01317457
1.4141414,3.3535354,-0.0009955354,-0.013222294,-107.51864,-89.45169,-59.16744,0.013259719
1.4141414,3.3939395,-0.0006541051,-0.013322461,-111.417534,-86.09202,-57.035606,0.013338509
1.4141414,3.4343433,-0.0002767183,-0.013410095,-114.89647,-82.409676,-54.613087,0.01341295
1.4141414,3.4747474,0.0001383163,-0.013485013,-117.8563,-78.384514,-51.9034,0.013485722
1.4141414,3.5151515,0.0005925782,-0.013546733,-120.19661,-73.99649,-48.911747,0.013559688
1.4141414,3.5555556,0.0010877065,-0.013595104,-121.81186,-69.22463,-45.645813,0.013638547
1.4141414,3.5959597,0.0016248934,-0.013630131,-122.598236,-64.04917,-42.11533,0.013726644
1.4141414,3.6363637,0.0022053458,-0.013651542,-122.45178,-58.45077,-38.331944,0.013828527
1.4141414,3.6767676,0.002830159,-0.013659304,-121.27211,-52.410694,-34.308098,0.013949422
1.4141414,3.7171717,0.0035000332,-0.013653677,-118.96102,-45.91253,-30.05944,0.014095146
1.4141414,3.7575758,0.0042155944,-0.01363457,-115.429016,-38.94208,-25.60044,0.014271396
1.4141414,3.7979798,0.0049772374,-0.013602167,-110.59262,-31.487923,-20.947634,0.014484193
1.4141414,3.838384,0.005785186,-0.013556665,-104.37563,-23.540987,-16.117775,0.014739455
1.4141414,3.878788,0.0066395067,-0.013498383,-96.7099,-15.094652,-11.127621,0.015042918
1.4141414,3.9191918,0.007539939,-0.01342758,-87.543625,-6.149227,-5.9941034,0.015399694
1.4141414,3.959596,0.0084861405,-0.013344655,-76.83117,3.2945614,-0.73402905,0.015814373
1.4141414,4.0,0.0094775595,-0.0132501535,-64.53918,13.230786,4.6363316,0.016290816
1.4646465,0.04040404,-0.00032391772,-0.0004073307,2.232213,-8.078537,-6.9452786,0.00052042387
1.4646465,0.08080808,-0.00035471842,-0.00043175556,0.9696088,-10.485593,-8.014108,0.0005587826
1.4646465,0.121212125,-0.00039210543,-0.00046082586,-0.19253695,-12.881189,-9.083966,0.0006050679
1.4646465,0.16161616,-0.00043575466,-0.0004944932,-1.2568737,-15.264544,-10.149595,0.00065909454
1.4646465,0.2020202,-0.00048546493,-0.00053299963,-2.2274492,-17.634531,-11.205968,0.00072094717
1.4646465,0.24242425,-0.0005412623,-0.0005762819,-3.1077752,-19.989727,-12.248258,0.000790611
1.4646465,0.28282827,-0.00060269237,-0.0006244555,-3.9016814,-22.328934,-13.271962,0.00086786103
1.4646465,0.32323232,-0.00066943094,-0.00067765266,-4.6138506,-24.651255,-14.27288,0.0009525497
1.4646465,0.36363637,-0.0007413626,-0.00073567964,-5.2479634,-26.954126,-15.247139,0.0010444343
1.4646465,0.4040404,-0.0008180402,-0.000798665,-5.8091407,-29.236372,-16.191141,0.0011432653
1.4646465,0.44444445,-0.00089908764,-0.000866808,-6.301956,-31.496775,-17.101957,0.0012488854
1.4646465,0.4848485,-0.0009841211,-0.0009399392,-6.7316647,-33.73298,-17.97684,0.0013608747
1.4646465,0.5252525,-0.0010728128,-0.0010180566,-7.1029534,-35.94317,-18.813541,0.0014789748
1.4646465,0.56565654,-0.0011645816,-0.0011011735,-7.421652,-38.126118,-19.610193,0.001602758
1.4646465,0.6060606,-0.001259271,-0.0011893138,-7.6927137,-40.279427,-20.365622,0.0017321175
1.4646465,0.64646465,-0.0013561435,-0.001282502,-7.9219007,-42.402176,-21.078726,0.0018665305
1.4646465,0.68686867,-0.001454886,-0.0013805255,-8.114514,-44.49188,-21.749126,0.002005628
1.4646465,0.72727275,-0.001554992,-0.0014835708,-8.276654,-46.547787,-22.37664,0.002149182
1.4646465,0.7676768,-0.0016559735,-0.0015913174,-8.412725,-48.5671,-22.96178,0.0022966363
1.4646465,0.8080808,-0.0017573498,-0.0017039236,-8.529557,-50.550148,-23.505411,0.0024477814
1.4646465,0.8484849,-0.001858741,-0.0018212013,-8.632348,-52.495174,-24.00868,0.0026022475
1.4646465,0.8888889,-0.0019595176,-0.0019430835,-8.725531,-54.401054,-24.473122,0.0027595803
1.4646465,0.9292929,-0.002059348,-0.0020694956,-8.815529,-56.267567,-24.900915,0.0029195421
1.4646465,0.969697,-0.0021577105,-0.0022003949,-8.907167,-58.09478,-25.294289,0.003081794
1.4646465,1.010101,-0.0022541992,-0.0023355559,-9.005016,-59.882378,-25.65585,0.003245957
1.4646465,1.050505,-0.002348382,-0.0024749637,-9.114258,-61.631016,-25.988806,0.0034117945
1.4646465,1.0909091,-0.002439808,-0.0026185103,-9.239032,-63.341663,-26.296179,0.0035790026
1.4646465,1.1313131,-0.0025281906,-0.0027660877,-9.383388,-65.01548,-26.581566,0.0037473976
1.4646465,1.1717172,-0.0026131794,-0.0029174984,-9.551798,-66.65427,-26.84877,0.0039166952
1.4646465,1.2121212,-0.0026943944,-0.0030727535,-9.746767,-68.26031,-27.101728,0.004086756
1.4646465,1.2525252,-0.0027714781,-0.0032316484,-9.971817,-69.83558,-27.344412,0.0042573046
1.4646465,1.2929293,-0.0028443374,-0.0033940636,-10.229261,-71.382774,-27.581337,0.0044283094
1.4646465,1.3333334,-0.002912663,-0.0035600346,-10.52161,-72.90586,-27.816862,0.004599723
1.4646465,1.3737373,-0.0029762685,-0.0037293825,-10.850292,-74.4079,-28.055567,0.004771422
1.4646465,1.4141414,-0.003035102,-0.0039019883,-11.215878,-75.892,-28.301981,0.0049434155
1.4646465,1.4545455,-0.0030888915,-0.004077833,-11.620383,-77.36284,-28.560753,0.0051156594
1.4646465,1.4949495,-0.00313773,-0.0042568296,-12.063157,-78.82337,-28.836618,0.005288284
1.4646465,1.5353535,-0.0031815432,-0.0044388827,-12.543988,-80.278206,-29.134602,0.005461309
1.4646465,1.5757576,-0.0032204464,-0.0046240315,-13.062828,-81.73083,-29.458883,0.0056349747
1.4646465,1.6161616,-0.0032543652,-0.0048121084,-13.618098,-83.18431,-29.814558,0.005809241
1.4646465,1.6565657,-0.0032835118,-0.0050031766,-14.208604,-84.64232,-30.205833,0.0059844153
1.4646465,1.6969697,-0.0033080392,-0.0051972065,-14.832669,-86.10717,-30.637247,0.006160688
1.4646465,1.7373737,-0.0033280589,-0.0053941254,-15.48884,-87.58229,-31.113104,0.006338183
1.4646465,1.7777778,-0.0033439435,-0.005593937,-16.175066,-89.06831,-31.637774,0.0065172147
1.4646465,1.8181819,-0.0033557937,-0.0057968143,-16.889832,-90.5673,-32.214657,0.0066980897
1.4646465,1.8585858,-0.003364116,-0.006002512,-17.631222,-92.079094,-32.847813,0.0068809465
1.4646465,1.8989899,-0.003368996,-0.0062111374,-18.398018,-93.60339,-33.540047,0.0070660007
1.4646465,1.939394,-0.0033708774,-0.0064227376,-19.18914,-95.13911,-34.294487,0.0072535765
1.4646465,1.979798,-0.0033701584,-0.0066372585,-20.00403,-96.68357,-35.11361,0.0074438676
1.4646465,2.020202,-0.0033671074,-0.0068547036,-20.84285,-98.23383,-35.99908,0.0076370398
1.4646465,2.060606,-0.0033621117,-0.0070750397,-21.706425,-99.786255,-36.952522,0.007833261
1.4646465,2.10101,-0.0033555813,-0.0072982553,-22.597433,-101.33536,-37.974834,0.008032712
1.4646465,2.1414142,-0.0033477172,-0.007524302,-23.518356,-102.87523,-39.065453,0.008235432
1.4646465,2.1818182,-0.0033389926,-0.007753141,-24.474052,-104.399895,-40.22387,0.008441568
1.4646465,2.2222223,-0.003329493,-0.007984702,-25.469362,-105.90122,-41.448513,0.008651068
1.4646465,2.2626262,-0.0033196546,-0.008218702,-26.511395,-107.37085,-42.736923,0.008863812
1.4646465,2.3030303,-0.0033095106,-0.008455312,-27.6088,-108.80071,-44.08524,0.009079932
1.4646465,2.3434343,-0.0032992288,-0.008694075,-28.771976,-110.1809,-45.488594,0.009299024
1.4646465,2.3838384,-0.003288839,-0.008934943,-30.010752,-111.50197,-46.941875,0.009521012
1.4646465,2.4242425,-0.0032783449,-0.009177536,-31.338848,-112.75339,-48.437862,0.009745496
1.4646465,2.4646466,-0.0032676049,-0.009421686,-32.770073,-113.92573,-49.967884,0.009972231
1.4646465,2.5050504,-0.0032563955,-0.009667089,-34.32036,-115.00967,-51.52312,0.01020082
1.4646465,2.5454545,-0.0032443851,-0.00991326,-36.00483,-115.993965,-53.09247,0.010430665
1.4646465,2.5858586,-0.0032310933,-0.010159982,-37.839733,-116.8691,-54.664303,0.010661389
1.4646465,2.6262627,-0.003216017,-0.01040658,-39.842484,-117.62621,-56.2248,0.0108921835
1.4646465,2.6666667,-0.0031984411,-0.010652699,-42.0299,-118.25566,-57.759777,0.0111225005
1.4646465,2.7070708,-0.0031774938,-0.010897838,-44.417713,-118.74873,-59.25375,0.011351623
1.4646465,2.7474747,-0.0031522475,-0.011141332,-47.02098,-119.097176,-60.690113,0.011578685
1.4646465,2.7878788,-0.003121566,-0.011382695,-49.851658,-119.29245,-62.050983,0.011802963
1.4646465,2.8282828,-0.0030841678,-0.011621226,-52.92212,-119.32895,-63.318558,0.012023518
1.4646465,2.868687,-0.0030387938,-0.011856267,-56.237778,-119.19681,-64.47321,0.012239499
1.4646465,2.909091,-0.0029838271,-0.012087194,-59.802708,-118.89051,-65.49611,0.01245004
1.4646465,2.9494948,-0.0029177405,-0.012313213,-63.616222,-118.40241,-66.367325,0.012654186
1.4646465,2.989899,-0.002838552,-0.012533728,-67.66956,-117.72477,-67.067764,0.012851137
1.4646465,3.030303,-0.0027445108,-0.01274793,-71.95039,-116.84933,-67.57839,0.013040018
1.4646465,3.070707,-0.0026336536,-0.012955159,-76.43725,-115.768135,-67.88047,0.013220146
1.4646465,3.1111112,-0.0025038458,-0.013154646,-81.10315,-114.471436,-67.956474,0.013390817
1.4646465,3.1515152,-0.002352979,-0.013345711,-85.911644,-112.94858,-67.789894,0.01355155
1.4646465,3.191919,-0.002178777,-0.013527626,-90.81631,-111.18689,-67.36575,0.01370196
1.4646465,3.2323232,-0.0019790344,-0.01369979,-95.76537,-109.17439,-66.67106,0.013841995
1.4646465,3.2727273,-0.0017515868,-0.013861468,-100.694695,-106.895004,-65.69433,0.0139716985
1.4646465,3.3131313,-0.0014939345,-0.014012018,-105.53275,-104.3324,-64.42626,0.014091433
1.4646465,3.3535354,-0.0012040511,-0.014150944,-110.199265,-101.46865,-62.8602,0.014202075
1.4646465,3.3939395,-0.00087961927,-0.014277751,-114.60483,-98.283035,-60.99218,0.01430482
1.4646465,3.4343433,-0.0005185008,-0.014391866,-118.65231,-94.75403,-58.820396,0.014401203
1.4646465,3.4747474,-0.000118691474,-0.01449286,-122.24044,-90.85924,-56.34503,0.014493346
1.4646465,3.5151515,0.00032174215,-0.014580382,-125.26004,-86.57437,-53.570705,0.014583932
1.4646465,3.5555556,0.00080449507,-0.014653996,-127.597466,-81.87406,-50.502655,0.014676062
1.4646465,3.5959597,0.0013313964,-0.014713563,-129.13838,-76.73388,-47.149624,0.014773677
1.4646465,3.6363637,0.0019037873,-0.01475881,-129.76587,-71.12931,-43.522182,0.014881091
1.4646465,3.6767676,0.002523061,-0.014789604,-129.3626,-65.0349,-39.633217,0.015003273
1.4646465,3.7171717,0.003190253,-0.014805842,-127.817314,-58.42916,-35.496864,0.015145648
1.4646465,3.7575758,0.0039063506,-0.0148075,-125.01687,-51.28928,-31.129486,0.015314099
1.4646465,3.7979798,0.004671816,-0.014794625,-120.86039,-43.597893,-26.548174,0.015514729
1.4646465,3.838384,0.0054873116,-0.01476731,-115.24914,-35.33788,-21.77121,0.015753858
1.4646465,3.878788,0.006353028,-0.01472578,-108.09528,-26.496885,-16.817183,0.016037755
1.4646465,3.9191918,0.007268969,-0.014670208,-99.320946,-17.06543,-11.70493,0.016372321
1.4646465,3.959596,0.00823487,-0.014600869,-88.86413,-7.040345,-6.4532485,0.01676301
1.4646465,4.0,0.009250406,-0.014518116,-76.668625,3.5797038,-1.0807496,0.017214695
1.5151515,0.04040404,-0.00030568615,-0.000432916,2.6371474,-8.340684,-6.8761897,0.00052996253
1.5151515,0.08080808,-0.00033716485,-0.00045855716,1.3874393,-10.813844,-7.900336,0.0005691703
1.5151515,0.121212125,-0.00037482008,-0.0004888736,0.2382147,-13.273874,-8.925506,0.0006160255
1.5151515,0.16161616,-0.00041857734,-0.0005240999,-0.8127415,-15.719298,-9.94644,0.0006707367
1.5151515,0.2020202,-0.00046814606,-0.000564266,-1.7700272,-18.149942,-10.95798,0.0007331827
1.5151515,0.24242425,-0.0005234629,-0.0006093811,-2.6372654,-20.565279,-11.955542,0.0008033422
1.5151515,0.28282827,-0.00058412924,-0.0006595105,-3.4177127,-22.963778,-12.934384,0.000881
1.5151515,0.32323232,-0.00065001845,-0.0007148292,-4.1170096,-25.34526,-13.890686,0.0009661805
1.5151515,0.36363637,-0.0007207431,-0.000775164,-4.7388,-27.708044,-14.820344,0.0010584658
1.5151515,0.4040404,-0.0007960573,-0.00084069,-5.2883434,-30.051628,-15.71984,0.0011577853
1.5151515,0.44444445,-0.0008755736,-0.0009113848,-5.7702947,-32.374363,-16.586248,0.0012638242
1.5151515,0.4848485,-0.0009589866,-0.000987336,-6.1897626,-34.675293,-17.416798,0.0013764038
1.5151515,0.5252525,-0.0010458566,-0.0010683984,-6.5519967,-36.95274,-18.209288,0.001495089
1.5151515,0.56565654,-0.0011357479,-0.0011546649,-6.8620024,-39.20519,-18.961884,0.0016196216
1.5151515,0.6060606,-0.0012282394,-0.0012461804,-7.12577,-41.43187,-19.673285,0.001749725
1.5151515,0.64646465,-0.0013230406,-0.0013428051,-7.34819,-43.630333,-20.342442,0.0018850893
1.5151515,0.68686867,-0.0014195293,-0.0014445838,-7.5351963,-45.799885,-20.969,0.0020253113
1.5151515,0.72727275,-0.0015174039,-0.0015515015,-7.6920886,-47.938564,-21.553043,0.0021701776
1.5151515,0.7676768,-0.001616057,-0.0016634148,-7.8244796,-50.045094,-22.094788,0.0023191785
1.5151515,0.8080808,-0.0017151609,-0.001780387,-7.93762,-52.118195,-22.595182,0.002472156
1.5151515,0.8484849,-0.0018141903,-0.0019022301,-8.037382,-54.156715,-23.055586,0.0026286433
1.5151515,0.8888889,-0.0019127391,-0.0020289365,-8.129275,-56.159595,-23.477594,0.0027883966
1.5151515,0.9292929,-0.0020102896,-0.0021604653,-8.217724,-58.12591,-23.863455,0.0029510802
1.5151515,0.969697,-0.0021065027,-0.0022966024,-8.308782,-60.055374,-24.21522,0.0031163658
1.5151515,1.010101,-0.0022008084,-0.0024373606,-8.406644,-61.947166,-24.535978,0.0032839435
1.5151515,1.050505,-0.0022930615,-0.002582565,-8.516321,-63.80164,-24.828714,0.0034536608
1.5151515,1.0909091,-0.0023824647,-0.0027322527,-8.642627,-65.619415,-25.096754,0.003625099
1.5151515,1.1313131,-0.0024690963,-0.002886122,-8.788885,-67.40063,-25.344032,0.0037981756
1.5151515,1.1717172,-0.0025523193,-0.0030441675,-8.960365,-69.14724,-25.573866,0.003972567
1.5151515,1.2121212,-0.0026319511,-0.0032062158,-9.159254,-70.85975,-25.790777,0.0041481303
1.5151515,1.2525252,-0.0027076714,-0.0033722408,-9.389488,-72.54069,-25.999163,0.0043247533
1.5151515,1.2929293,-0.0027791746,-0.0035420433,-9.653783,-74.19211,-26.202951,0.0045022084
1.5151515,1.3333334,-0.0028463565,-0.0037156213,-9.953913,-75.816574,-26.407057,0.004680554
1.5151515,1.3737373,-0.0029089935,-0.0038927738,-10.293029,-77.41759,-26.616198,0.0048596226
1.5151515,1.4141414,-0.0029669069,-0.0040734783,-10.671374,-78.99771,-26.83482,0.005039421
1.5151515,1.4545455,-0.0030199476,-0.004257666,-11.090624,-80.56111,-27.067953,0.005219943
1.5151515,1.4949495,-0.003068231,-0.004445147,-11.550995,-82.110756,-27.320114,0.005401238
1.5151515,1.5353535,-0.003111627,-0.0046358444,-12.053475,-83.65102,-27.596214,0.005583303
1.5151515,1.5757576,-0.003150057,-0.0048298407,-12.597198,-85.18605,-27.901052,0.0057663005
1.5151515,1.6161616,-0.003183838,-0.0050270036,-13.181523,-86.71862,-28.239317,0.0059504276
1.5151515,1.6565657,-0.0032128915,-0.0052272733,-13.805428,-88.253136,-28.61561,0.00613572
1.5151515,1.6969697,-0.0032373555,-0.005430665,-14.467302,-89.79285,-29.034128,0.006322388
1.5151515,1.7373737,-0.0032574646,-0.0056370907,-15.166181,-91.340385,-29.499239,0.0065105963
1.5151515,1.7777778,-0.0032736212,-0.005846571,-15.900321,-92.898926,-30.015717,0.006700671
1.5151515,1.8181819,-0.003285706,-0.006059088,-16.667662,-94.470566,-30.586287,0.0068926346
1.5151515,1.8585858,-0.0032943003,-0.0062746666,-17.466665,-96.056625,-31.215836,0.007086879
1.5151515,1.8989899,-0.0032995902,-0.0064932685,-18.295864,-97.657684,-31.90655,0.0072835316
1.5151515,1.939394,-0.003301952,-0.006714981,-19.15395,-99.274414,-32.662003,0.0074829045
1.5151515,1.979798,-0.0033017434,-0.006939713,-20.039925,-100.905556,-33.48466,0.0076851235
1.5151515,2.020202,-0.0032992698,-0.0071675703,-20.953558,-102.549126,-34.37635,0.007890453
1.5151515,2.060606,-0.003294982,-0.0073984414,-21.895376,-104.20332,-35.33913,0.008099003
1.5151515,2.10101,-0.0032891259,-0.0076323636,-22.865019,-105.863464,-36.373337,0.008310916
1.5151515,2.1414142,-0.0032821894,-0.007869346,-23.866774,-107.52583,-37.48,0.008526393
1.5151515,2.1818182,-0.003274385,-0.008109342,-24.902178,-109.18468,-38.658203,0.008745457
1.5151515,2.2222223,-0.0032660328,-0.008352296,-25.97572,-110.83301,-39.906815,0.008968156
1.5151515,2.2626262,-0.0032574348,-0.008598067,-27.093262,-112.46437,-41.224167,0.009194435
1.5151515,2.3030303,-0.0032487772,-0.008846661,-28.261362,-114.07076,-42.60731,0.009424328
1.5151515,2.3434343,-0.00324025,-0.009097882,-29.488811,-115.64265,-44.052135,0.0096576745
1.5151515,2.3838384,-0.0032318346,-0.00935157,-30.784748,-117.17116,-45.553745,0.009894272
1.5151515,2.4242425,-0.0032237507,-0.009607535,-32.161316,-118.64629,-47.10631,0.010133968
1.5151515,2.4646466,-0.003215719,-0.009865569,-33.63038,-120.05785,-48.702274,0.01037643
1.5151515,2.5050504,-0.0032077394,-0.010125315,-35.20514,-121.39429,-50.33334,0.01062128
1.5151515,2.5454545,-0.0031993762,-0.010386616,-36.902885,-122.64687,-51.98975,0.010868201
1.5151515,2.5858586,-0.0031904392,-0.010648973,-38.737232,-123.80272,-53.66064,0.011116633
1.5151515,2.6262627,-0.0031802468,-0.010912016,-40.72682,-124.85284,-55.333614,0.011366005
1.5151515,2.6666667,-0.0031682812,-0.011175279,-42.887924,-125.78569,-56.994816,0.011615716
1.5151515,2.7070708,-0.0031537414,-0.011438431,-45.2365,-126.59168,-58.630386,0.011865235
1.5151515,2.7474747,-0.0031356886,-0.011700653,-47.79095,-127.26073,-60.223427,0.012113539
1.5151515,2.7878788,-0.003113214,-0.011961615,-50.565853,-127.783936,-61.75759,0.01236011
1.5151515,2.8282828,-0.0030849166,-0.012220692,-53.57357,-128.15044,-63.21475,0.012604048
1.5151515,2.868687,-0.003049586,-0.01247707,-56.82652,-128.35239,-64.57564,0.012844346
1.5151515,2.909091,-0.0030056313,-0.012730282,-60.330933,-128.3804,-65.82134,0.013080287
1.5151515,2.9494948,-0.002951499,-0.012979416,-64.09195,-128.22627,-66.93119,0.01331077
1.5151515,2.989899,-0.0028853826,-0.013223961,-68.108986,-127.88114,-67.88569,0.013535087
1.5151515,3.030303,-0.0028054193,-0.013463058,-72.37483,-127.336,-68.66441,0.013752246
1.5151515,3.070707,-0.002709549,-0.013695899,-76.8753,-126.579956,-69.247086,0.0139613515
1.5151515,3.1111112,-0.0025955923,-0.0139218625,-81.59019,-125.60414,-69.61475,0.014161757
1.5151515,3.1515152,-0.0024614744,-0.014139958,-86.492935,-124.39685,-69.74844,0.014352605
1.5151515,3.191919,-0.0023046508,-0.014349736,-91.54382,-122.94502,-69.63124,0.014533628
1.5151515,3.2323232,-0.0021228641,-0.014550151,-96.696625,-121.23465,-69.24727,0.014704199
1.5151515,3.2727273,-0.0019136705,-0.014740633,-101.895195,-119.250114,-68.58226,0.014864333
1.5151515,3.3131313,-0.0016745664,-0.014920417,-107.07314,-116.97365,-67.62426,0.015014094
1.5151515,3.3535354,-0.0014031641,-0.015088879,-112.15437,-114.38619,-66.362755,0.015153981
1.5151515,3.3939395,-0.0010970868,-0.0152453,-117.05348,-111.46566,-64.79185,0.015284724
1.5151515,3.4343433,-0.0007536821,-0.0153892115,-121.67268,-108.188156,-62.905758,0.015407656
1.5151515,3.4747474,-0.00037093833,-0.015519928,-125.91073,-104.5297,-60.70297,0.01552436
1.5151515,3.5151515,5.3670257e-05,-0.015636899,-129.65349,-100.46145,-58.18404,0.015636992
1.5151515,3.5555556,0.0005220212,-0.015739806,-132.78351,-95.95554,-55.353336,0.01574846
1.5151515,3.5959597,0.0010362752,-0.015828274,-135.17503,-90.9823,-52.217407,0.015862161
1.5151515,3.6363637,0.0015981272,-0.015901752,-136.7005,-85.51098,-48.785503,0.015981857
1.5151515,3.6767676,0.0022093542,-0.015960153,-137.23116,-79.51244,-45.068504,0.016112348
1.5151515,3.7171717,0.0028711893,-0.016003199,-136.63669,-72.95651,-41.081684,0.016258724
1.5151515,3.7575758,0.00358494,-0.016030744,-134.78732,-65.814,-36.840477,0.016426703
1.5151515,3.7979798,0.004351694,-0.016042665,-131.55733,-58.05762,-32.362755,0.016622405
1.5151515,3.838384,0.005172167,-0.016038932,-126.82982,-49.663918,-27.66764,0.01685226
1.5151515,3.878788,0.006046869,-0.016019665,-120.490616,-40.610695,-22.77593,0.017122917
1.5151515,3.9191918,0.006975986,-0.015984874,-112.43963,-30.880932,-17.707565,0.017440774
1.5151515,3.959596,0.00795972,-0.01593487,-102.58369,-20.460302,-12.4846735,0.017812276
1.5151515,4.0,0.008997742,-0.015869737,-90.845665,-9.341077,-7.128465,0.018243022
1.5656565,0.04040404,-0.00028590858,-0.00045673177,2.9930313,-8.616361,-6.743053,0.00053883914
1.5656565,0.08080808,-0.00031783804,-0.00048348308,1.7595587,-11.14905,-7.72149,0.0005785991
1.5656565,0.121212125,-0.0003558211,-0.00051512383,0.6269813,-13.665824,-8.7009945,0.00062606804
1.5656565,0.16161616,-0.00039947033,-0.0005517937,-0.40818122,-16.166452,-9.676096,0.00068121427
1.5656565,0.2020202,-0.000448782,-0.00059352815,-1.349195,-18.650362,-10.642037,0.0007440974
1.5656565,0.24242425,-0.00050349534,-0.0006403979,-2.1998456,-21.11717,-11.594007,0.0008146269
1.5656565,0.28282827,-0.0005633868,-0.0006924644,-2.9656186,-23.567577,-12.52761,0.0008926991
1.5656565,0.32323232,-0.0006281473,-0.0007497277,-3.6498594,-26.00002,-13.438726,0.0009780903
1.5656565,0.36363637,-0.00069763884,-0.0008122511,-4.2579465,-28.414778,-14.323299,0.0010707249
1.5656565,0.4040404,-0.0007715821,-0.00088011473,-4.7945876,-30.810785,-15.178192,0.0011704448
1.5656565,0.44444445,-0.0008494556,-0.00095322356,-5.2650294,-33.187687,-15.999971,0.0012767967
1.5656565,0.4848485,-0.0009310134,-0.001031749,-5.6737995,-35.544395,-16.786175,0.0013897092
1.5656565,0.5252525,-0.0010159425,-0.001115581,-6.0266166,-37.88009,-17.534575,0.0015088606
1.5656565,0.56565654,-0.0011038221,-0.0012048092,-6.3288684,-40.19388,-18.243168,0.00163401
1.5656565,0.6060606,-0.0011942089,-0.0012992956,-6.585993,-42.48438,-18.910732,0.0017647389
1.5656565,0.64646465,-0.0012866706,-0.0013992153,-6.8029437,-44.75053,-19.536272,0.0019008747
1.5656565,0.68686867,-0.0013809018,-0.0015044268,-6.9859734,-46.99144,-20.119463,0.0020421043
1.5656565,0.72727275,-0.001476299,-0.0016148835,-7.1400533,-49.205112,-20.660084,0.0021879917
1.5656565,0.7676768,-0.0015725456,-0.0017305706,-7.270547,-51.390568,-21.15859,0.0023383272
1.5656565,0.8080808,-0.0016692616,-0.0018514767,-7.3839293,-53.546936,-21.61605,0.00249287
1.5656565,0.8484849,-0.0017658919,-0.0019775648,-7.4846015,-55.672592,-22.033781,0.0026512519
1.5656565,0.8888889,-0.0018619671,-0.0021086857,-7.577613,-57.76602,-22.413357,0.0028130903
1.5656565,0.9292929,-0.0019571334,-0.002244832,-7.6689963,-59.826973,-22.756765,0.0029781943
1.5656565,0.969697,-0.0020509884,-0.0023858473,-7.7636824,-61.854065,-23.066765,0.003146239
1.5656565,1.010101,-0.0021431446,-0.002531685,-7.865682,-63.846893,-23.34603,0.0033170013
1.5656565,1.050505,-0.0022331513,-0.0026823282,-7.980683,-65.80496,-23.597996,0.0034902508
1.5656565,1.0909091,-0.0023205765,-0.0028375443,-8.112859,-67.728615,-23.825829,0.0036656149
1.5656565,1.1313131,-0.0024052225,-0.0029972494,-8.266375,-69.617516,-24.03334,0.0038429934
1.5656565,1.1717172,-0.00248665,-0.0031613503,-8.444619,-71.4721,-24.224636,0.004022134
1.5656565,1.2121212,-0.0025645122,-0.0033298228,-8.651838,-73.29424,-24.403872,0.004202909
1.5656565,1.2525252,-0.0026387013,-0.003502477,-8.891386,-75.08421,-24.575447,0.004385213
1.5656565,1.2929293,-0.002708789,-0.0036792532,-9.165835,-76.84463,-24.744045,0.0045688557
1.5656565,1.3333334,-0.002774775,-0.003859885,-9.478149,-78.576645,-24.914194,0.0047537447
1.5656565,1.3737373,-0.00283622,-0.0040444564,-9.829961,-80.283615,-25.09051,0.004939815
1.5656565,1.4141414,-0.0028931387,-0.0042327903,-10.223191,-81.96799,-25.27839,0.005127062
1.5656565,1.4545455,-0.0029454082,-0.004424801,-10.658818,-83.63273,-25.482224,0.005315477
1.5656565,1.4949495,-0.0029930621,-0.004620377,-11.138807,-85.28172,-25.70728,0.005505116
1.5656565,1.5353535,-0.0030358918,-0.0048194397,-11.662457,-86.91827,-25.957994,0.005695932
1.5656565,1.5757576,-0.0030740388,-0.0050219446,-12.230214,-88.54568,-26.239527,0.0058880933
1.5656565,1.6161616,-0.0031075329,-0.0052278414,-12.841878,-90.16897,-26.556509,0.006081701
1.5656565,1.6565657,-0.0031364039,-0.005437011,-13.496146,-91.79085,-26.91361,0.006276792
1.5656565,1.6969697,-0.0031609572,-0.005649455,-14.192698,-93.41587,-27.315409,0.006473638
1.5656565,1.7373737,-0.0031811893,-0.005865099,-14.92965,-95.046844,-27.766043,0.0066722822
1.5656565,1.7777778,-0.0031974837,-0.006083999,-15.705859,-96.68779,-28.269905,0.006873059
1.5656565,1.8181819,-0.0032099783,-0.0063061267,-16.518942,-98.34083,-28.830862,0.0070761
1.5656565,1.8585858,-0.0032189116,-0.0065314174,-17.368961,-100.00988,-29.452372,0.0072815386
1.5656565,1.8989899,-0.003224697,-0.006759912,-18.253078,-101.69553,-30.137993,0.007489665
1.5656565,1.939394,-0.0032276101,-0.0069916043,-19.168982,-103.39886,-30.890617,0.0077006496
1.5656565,1.979798,-0.00322802,-0.0072265454,-20.116846,-105.12131,-31.71289,0.007914738
1.5656565,2.020202,-0.003226202,-0.0074646734,-21.09508,-106.86169,-32.607056,0.008132019
1.5656565,2.060606,-0.0032226667,-0.007706145,-22.103857,-108.61946,-33.57496,0.008352859
1.5656565,2.10101,-0.003217686,-0.007950766,-23.143557,-110.39198,-34.617424,0.008577189
1.5656565,2.1414142,-0.0032115728,-0.0081986375,-24.21433,-112.175705,-35.735218,0.008805217
1.5656565,2.1818182,-0.003204815,-0.008449769,-25.319681,-113.967735,-36.928658,0.009037115
1.5656565,2.2222223,-0.0031976365,-0.008704156,-26.4615,-115.76192,-38.19633,0.009272929
1.5656565,2.2626262,-0.0031902678,-0.008961692,-27.64386,-117.552414,-39.537243,0.00951261
1.5656565,2.3030303,-0.0031831153,-0.009222321,-28.873987,-119.33255,-40.94905,0.0097562
1.5656565,2.3434343,-0.003176149,-0.009486053,-30.156153,-121.094345,-42.428074,0.010003656
1.5656565,2.3838384,-0.0031696707,-0.009752601,-31.500313,-122.82822,-43.9706,0.010254757
1.5656565,2.4242425,-0.0031637736,-0.01002194,-32.916576,-124.52566,-45.571228,0.010509459
1.5656565,2.4646466,-0.0031582639,-0.010293821,-34.41426,-126.17602,-47.223515,0.010767422
1.5656565,2.5050504,-0.0031532533,-0.010568105,-36.007366,-127.76877,-48.920307,0.011028501
1.5656565,2.5454545,-0.0031483062,-0.010844419,-37.70943,-129.29303,-50.65269,0.011292176
1.5656565,2.5858586,-0.0031433143,-0.0111225955,-39.535347,-130.73734,-52.410847,0.011558224
1.5656565,2.6262627,-0.0031375773,-0.011402195,-41.500057,-132.08968,-54.183315,0.011826007
1.5656565,2.6666667,-0.0031307898,-0.011682821,-43.623016,-133.33936,-55.95835,0.012095047
1.5656565,2.7070708,-0.0031220354,-0.011964103,-45.920135,-134.47476,-57.72115,0.012364743
1.5656565,2.7474747,-0.003110677,-0.012245463,-48.409912,-135.48471,-59.457645,0.012634385
1.5656565,2.7878788,-0.0030955933,-0.012526384,-51.10685,-136.35698,-61.151302,0.012903216
1.5656565,2.8282828,-0.0030756816,-0.012806343,-54.030098,-137.0821,-62.78488,0.013170506
1.5656565,2.868687,-0.0030496605,-0.0130846035,-57.191032,-137.64822,-64.33967,0.0134352995
1.5656565,2.909091,-0.0030160695,-0.0133607,-60.604424,-138.0467,-65.796875,0.013696897
1.5656565,2.9494948,-0.0029732399,-0.013633847,-64.27731,-138.2663,-67.13621,0.013954281
1.5656565,2.989899,-0.0029196478,-0.013903266,-68.216286,-138.29701,-68.337425,0.0142065175
1.5656565,3.030303,-0.0028531179,-0.014168244,-72.41973,-138.12794,-69.37896,0.014452661
1.5656565,3.070707,-0.0027716942,-0.01442796,-76.88353,-137.74916,-70.24027,0.014691777
1.5656565,3.1111112,-0.0026732571,-0.014681732,-81.59419,-137.14948,-70.90054,0.014923122
1.5656565,3.1515152,-0.0025555007,-0.014928654,-86.5321,-136.31616,-71.339905,0.015145801
1.5656565,3.191919,-0.0024160258,-0.015167922,-91.67078,-135.23773,-71.53822,0.015359135
1.5656565,3.2323232,-0.0022523142,-0.015398737,-96.9706,-133.8983,-71.47749,0.015562584
1.5656565,3.2727273,-0.002061732,-0.015620366,-102.38391,-132.28242,-71.14055,0.015755842
1.5656565,3.3131313,-0.0018417649,-0.015831891,-107.853035,-130.37166,-70.51315,0.01593866
1.5656565,3.3535354,-0.0015897006,-0.016032595,-113.30932,-128.14603,-69.5809,0.016111216
1.5656565,3.3939395,-0.0013029017,-0.016221754,-118.67318,-125.583664,-68.33466,0.016273992
1.5656565,3.4343433,-0.0009786375,-0.01639868,-123.85281,-122.6594,-66.76558,0.016427854
1.5656565,3.4747474,-0.00061444193,-0.016562663,-128.74554,-119.345634,-64.86876,0.016574055
1.5656565,3.5151515,-0.00020769611,-0.01671312,-133.24188,-115.61433,-62.64227,0.01671441
1.5656565,3.5555556,0.0002442263,-0.016849365,-137.21848,-111.43227,-60.086353,0.016851135
1.5656565,3.5959597,0.00074333325,-0.016970892,-140.54686,-106.76676,-57.205235,0.016987162
1.5656565,3.6363637,0.0012920313,-0.017077357,-143.08932,-101.58253,-54.007076,0.017126162
1.5656565,3.6767676,0.0018921643,-0.017168168,-144.70909,-95.84496,-50.499847,0.017272124
1.5656565,3.7171717,0.0025456883,-0.017243024,-145.25586,-89.51545,-46.698032,0.01742993
1.5656565,3.7575758,0.0032541417,-0.01730175,-144.58754,-82.55965,-42.61655,0.017605111
1.5656565,3.7979798,0.004018873,-0.017343927,-142.55663,-74.94119,-38.273556,0.017803458
1.5656565,3.838384,0.0048410855,-0.017369512,-139.02246,-66.62705,-33.688545,0.01803153
1.5656565,3.878788,0.0057215802,-0.017378446,-133.84662,-57.585373,-28.882986,0.018296089
1.5656565,3.9191918,0.0066610016,-0.017370686,-126.89817,-47.787388,-23.87986,0.018604023
1.5656565,3.959596,0.0076596476,-0.017346114,-118.0617,-37.21102,-18.701918,0.018962013
1.5656565,4.0,0.008717466,-0.017305061,-107.226494,-25.835396,-13.374283,0.019376773
1.6161616,0.04040404,-0.00026473776,-0.00047837757,3.2947023,-8.90276,-6.549031,0.000546746
1.6161616,0.08080808,-0.00029716268,-0.0005061552,2.0805554,-11.488341,-7.4808836,0.00058694015
1.6161616,0.121212125,-0.00033513084,-0.00053908303,0.9674684,-14.055312,-8.413554,0.00063476234
1.6161616,0.16161616,-0.00037861988,-0.0005771406,-0.048045665,-16.603678,-9.342254,0.00069024944
1.6161616,0.2020202,-0.00042747334,-0.000620421,-0.9701927,-19.13383,-10.261973,0.00075342925
1.6161616,0.24242425,-0.0004814975,-0.0006689057,-1.802894,-21.645802,-11.167965,0.0008241812
1.6161616,0.28282827,-0.0005404167,-0.0007227268,-2.550989,-24.140013,-12.055742,0.0009024324
1.6161616,0.32323232,-0.0006041154,-0.0007819049,-3.218811,-26.616371,-12.921448,0.0009880945
1.6161616,0.36363637,-0.000672251,-0.00084645674,-3.811359,-29.07482,-13.761023,0.0010809303
1.6161616,0.4040404,-0.0007445887,-0.00091643445,-4.3338065,-31.51574,-14.571235,0.0011807897
1.6161616,0.44444445,-0.00082073733,-0.0009918343,-4.791295,-33.938522,-15.348697,0.0012873792
1.6161616,0.4848485,-0.00090048835,-0.0010727607,-5.1888247,-36.342896,-16.090946,0.0014006052
1.6161616,0.5252525,-0.0009833612,-0.0011591353,-5.531802,-38.72849,-16.795765,0.0015200637
1.6161616,0.56565654,-0.0010690242,-0.0012509748,-5.826133,-41.094883,-17.461113,0.0016455245
1.6161616,0.6060606,-0.0011572205,-0.0013483185,-6.076858,-43.4412,-18.08552,0.0017768292
1.6161616,0.64646465,-0.0012472793,-0.0014511757,-6.2892194,-45.766525,-18.668264,0.0019135351
1.6161616,0.68686867,-0.001339078,-0.0015594568,-6.4690056,-48.06997,-19.208893,0.002055489
1.6161616,0.72727275,-0.0014319681,-0.0016732235,-6.621665,-50.350533,-19.706985,0.002202319
1.6161616,0.7676768,-0.0015257336,-0.0017924495,-6.752748,-52.607513,-20.16336,0.0023538773
1.6161616,0.8080808,-0.0016198792,-0.0019169152,-6.8673525,-54.838673,-20.57881,0.0025096957
1.6161616,0.8484849,-0.0017139502,-0.0020467974,-6.9708,-57.043964,-20.954578,0.002669645
1.6161616,0.8888889,-0.0018075518,-0.00218191,-7.068364,-59.221516,-21.292349,0.0028333683
1.6161616,0.9292929,-0.0019002967,-0.0023222305,-7.1654377,-61.37075,-21.594387,0.0030006468
1.6161616,0.969697,-0.0019917302,-0.0024677087,-7.266119,-63.489952,-21.863096,0.0031712104
1.6161616,1.010101,-0.0020815097,-0.002618201,-7.3763185,-65.57907,-22.10137,0.003344796
1.6161616,1.050505,-0.0021692365,-0.0027736481,-7.4996443,-67.63663,-22.312527,0.0035211802
1.6161616,1.0909091,-0.0022545531,-0.0029339772,-7.640956,-69.66264,-22.500082,0.0037001665
1.6161616,1.1313131,-0.00233699,-0.003099084,-7.8042116,-71.65718,-22.667892,0.0038814745
1.6161616,1.1717172,-0.0024165101,-0.0032688398,-7.9935956,-73.61984,-22.819912,0.004065075
1.6161616,1.2121212,-0.002492603,-0.003443148,-8.212193,-75.55115,-22.960651,0.0042506866
1.6161616,1.2525252,-0.0025650114,-0.0036219992,-8.463962,-77.452156,-23.094507,0.004438261
1.6161616,1.2929293,-0.0026337132,-0.0038050786,-8.751845,-79.32393,-23.226332,0.0046276418
1.6161616,1.3333334,-0.0026982613,-0.003992349,-9.078105,-81.16762,-23.36068,0.004818658
1.6161616,1.3737373,-0.0027584843,-0.0041838363,-9.444958,-82.98583,-23.502605,0.005011359
1.6161616,1.4141414,-0.0028144307,-0.00437939,-9.854693,-84.78061,-23.657198,0.0052057733
1.6161616,1.4545455,-0.0028657652,-0.0045787096,-10.307914,-86.553925,-23.829178,0.005401592
1.6161616,1.4949495,-0.002912663,-0.004781965,-10.807349,-88.3107,-24.024088,0.005599178
1.6161616,1.5353535,-0.0029549338,-0.0049889497,-11.3516655,-90.052055,-24.246397,0.0057983836
1.6161616,1.5757576,-0.0029926114,-0.0051995907,-11.942764,-91.782745,-24.501135,0.005999289
1.6161616,1.6161616,-0.0030258484,-0.0054137707,-12.5797415,-93.5063,-24.793306,0.006201989
1.6161616,1.6565657,-0.0030546114,-0.0056315474,-13.262024,-95.22632,-25.12765,0.0064066355
1.6161616,1.6969697,-0.0030790977,-0.0058527254,-13.98902,-96.947105,-25.508905,0.006613262
1.6161616,1.7373737,-0.0030994713,-0.0060774293,-14.759379,-98.6724,-25.941328,0.0068221604
1.6161616,1.7777778,-0.003115978,-0.0063053872,-15.572249,-100.405754,-26.42868,0.007033294
1.6161616,1.8181819,-0.003128808,-0.006536888,-16.425108,-102.15042,-26.975733,0.007247092
1.6161616,1.8585858,-0.003138192,-0.006771706,-17.317974,-103.91083,-27.585459,0.007463528
1.6161616,1.8989899,-0.0031444207,-0.0070098825,-18.247524,-105.688484,-28.261852,0.0076828273
1.6161616,1.939394,-0.003147971,-0.007251503,-19.213346,-107.48643,-29.007193,0.007905316
1.6161616,1.979798,-0.0031489953,-0.0074964855,-20.212513,-109.30552,-29.825191,0.008131019
1.6161616,2.020202,-0.003147982,-0.007744884,-21.245663,-111.14759,-30.717257,0.008360204
1.6161616,2.060606,-0.0031452142,-0.007996758,-22.310108,-113.011894,-31.685825,0.008593051
1.6161616,2.10101,-0.0031410418,-0.008252041,-23.40749,-114.89868,-32.73173,0.008829628
1.6161616,2.1414142,-0.0031359494,-0.00851085,-24.537298,-116.805824,-33.856148,0.009070212
1.6161616,2.1818182,-0.0031302348,-0.008773122,-25.700289,-118.73041,-35.05906,0.0093148295
1.6161616,2.2222223,-0.0031241812,-0.009038882,-26.899012,-120.66861,-36.340096,0.009563572
1.6161616,2.2626262,-0.0031180978,-0.009308176,-28.136587,-122.61702,-37.69831,0.009816551
1.6161616,2.3030303,-0.0031122565,-0.009580893,-29.416134,-124.568214,-39.131256,0.010073711
1.6161616,2.3434343,-0.0031069033,-0.009857018,-30.744122,-126.51631,-40.637386,0.010335068
1.6161616,2.3838384,-0.0031021908,-0.010136515,-32.12696,-128.45377,-42.212013,0.010600591
1.6161616,2.4242425,-0.0030982755,-0.010419201,-33.57256,-130.37132,-43.851234,0.010870099
1.6161616,2.4646466,-0.0030951016,-0.010705017,-35.090195,-132.2593,-45.54958,0.011143475
1.6161616,2.5050504,-0.0030927062,-0.0109937675,-36.69229,-134.10773,-47.30039,0.011420497
1.6161616,2.5454545,-0.003090825,-0.011285309,-38.389328,-135.90575,-49.096027,0.011700914
1.6161616,2.5858586,-0.0030892342,-0.011579325,-40.197224,-137.64189,-50.927532,0.011984329
1.6161616,2.6262627,-0.0030875392,-0.011875536,-42.130264,-139.30385,-52.784832,0.012270341
1.6161616,2.6666667,-0.0030853152,-0.012173617,-44.20436,-140.87964,-54.657173,0.012558508
1.6161616,2.7070708,-0.0030818544,-0.0124731455,-46.438065,-142.35706,-56.531376,0.012848237
1.6161616,2.7474747,-0.003076367,-0.012773814,-48.84648,-143.72272,-58.39407,0.013139039
1.6161616,2.7878788,-0.0030680858,-0.013074938,-51.451298,-144.9649,-60.22986,0.013430084
1.6161616,2.8282828,-0.0030557849,-0.013376182,-54.268536,-146.07216,-62.022182,0.013720789
1.6161616,2.868687,-0.0030382462,-0.013676798,-57.315533,-147.0315,-63.75359,0.014010201
1.6161616,2.909091,-0.0030141436,-0.01397628,-60.607895,-147.83136,-65.40568,0.014297604
1.6161616,2.9494948,-0.0029818714,-0.014273969,-64.15919,-148.46007,-66.95832,0.014582104
1.6161616,2.989899,-0.0029397942,-0.014569076,-67.98073,-148.90637,-68.391945,0.014862717
1.6161616,3.030303,-0.0028859526,-0.014860883,-72.07902,-149.15887,-69.68429,0.015138513
1.6161616,3.070707,-0.0028183348,-0.015148554,-76.45586,-149.2053,-70.81454,0.0154084945
1.6161616,3.1111112,-0.002734758,-0.015431441,-81.108,-149.03505,-71.76092,0.015671896
1.6161616,3.1515152,-0.0026329644,-0.015708536,-86.025314,-148.63434,-72.50148,0.015927669
1.6161616,3.191919,-0.002510406,-0.015979093,-91.18949,-147.99068,-73.01551,0.01617509
1.6161616,3.2323232,-0.0023644827,-0.016242146,-96.57346,-147.08936,-73.28205,0.016413352
1.6161616,3.2727273,-0.0021927096,-0.016496971,-102.14139,-145.91432,-73.28226,0.016642056
1.6161616,3.3131313,-0.0019920208,-0.016742624,-107.84366,-144.44757,-72.99698,0.016860712
1.6161616,3.3535354,-0.0017598309,-0.016978223,-113.62379,-142.66945,-72.41168,0.017069183
1.6161616,3.3939395,-0.0014931932,-0.017202988,-119.41059,-140.55757,-71.51076,0.017267669
1.6161616,3.4343433,-0.0011891983,-0.01741615,-125.12079,-138.08714,-70.2839,0.017456701
1.6161616,3.4747474,-0.0008450113,-0.017616827,-130.65968,-135.23012,-68.72172,0.017637081
1.6161616,3.5151515,-0.00045780465,-0.017804328,-135.9222,-131.95714,-66.81818,0.017810212
1.6161616,3.5555556,-2.470985e-05,-0.017977938,-140.78323,-128.23164,-64.57121,0.017977955
1.6161616,3.5959597,0.00045689568,-0.01813699,-145.11903,-124.0212,-61.980904,0.018142743
1.6161616,3.6363637,0.0009894855,-0.018280849,-148.78687,-119.28566,-59.05154,0.018307608
1.6161616,3.6767676,0.0015755668,-0.018408947,-151.63896,-113.98475,-55.790466,0.018476248
1.6161616,3.7171717,0.0022173226,-0.01852082,-153.51816,-108.075294,-52.209038,0.018653078
1.6161616,3.7575758,0.0029168762,-0.018616118,-154.26413,-101.51481,-48.320576,0.018843248
1.6161616,3.7979798,0.0036758222,-0.018694304,-153.71666,-94.26071,-44.14282,0.019052261
1.6161616,3.838384,0.0044958964,-0.018755116,-151.70818,-86.26876,-39.694523,0.019286457
1.6161616,3.878788,0.0053781755,-0.018798396,-148.07939,-77.49817,-34.998154,0.019552609
1.6161616,3.9191918,0.006323997,-0.018823955,-142.66992,-67.90843,-30.077837,0.01985785
1.6161616,3.959596,0.00733361,-0.018831503,-135.33395,-57.464615,-24.958439,0.02020909
1.6161616,4.0,0.008407731,-0.018821262,-125.92596,-46.133564,-19.667234,0.020613827
1.6666666,0.04040404,-0.00024236366,-0.00049744546,3.5385194,-9.196653,-6.2976017,0.0005533463
1.6666666,0.08080808,-0.0002750568,-0.0005262904,2.3465054,-11.829042,-7.1821094,0.00059383316
1.6666666,0.121212125,-0.00031301752,-0.000560401,1.2553495,-14.439961,-8.067731,0.00064189505
1.6666666,0.16161616,-0.00035623088,-0.0005997401,0.2617397,-17.029938,-8.949213,0.00069755904
1.6666666,0.2020202,-0.0004044883,-0.0006444305,-0.63887244,-19.599567,-9.822197,0.00076085574
1.6666666,0.24242425,-0.00045767054,-0.0006944854,-1.4510297,-22.149897,-10.681916,0.00083172845
1.6666666,0.28282827,-0.00051566586,-0.0007499624,-2.1791353,-24.681196,-11.524015,0.00091014005
1.6666666,0.32323232,-0.00057807565,-0.00081096403,-2.8284883,-27.194479,-12.344351,0.0009959086
1.6666666,0.36363637,-0.0006447099,-0.0008773748,-3.4038663,-29.68997,-13.1391735,0.0010887779
1.6666666,0.4040404,-0.000715401,-0.0009493269,-3.9107058,-32.168243,-13.904976,0.0011887052
1.6666666,0.44444445,-0.00078973547,-0.0010268539,-4.3534107,-34.629223,-14.638964,0.0012954193
1.6666666,0.4848485,-0.000867445,-0.001109913,-4.7389235,-37.07389,-15.337871,0.0014086759
1.6666666,0.5252525,-0.0009482093,-0.0011986233,-5.071283,-39.501488,-15.999925,0.001528332
1.6666666,0.56565654,-0.0010316595,-0.00129297,-5.356854,-41.912567,-16.62288,0.001654114
1.6666666,0.6060606,-0.00111733,-0.0013928562,-5.6004457,-44.30616,-17.205536,0.0017856301
1.6666666,0.64646465,-0.0012051314,-0.0014983919,-5.808247,-46.682495,-17.746693,0.0019228936
1.6666666,0.68686867,-0.0012943856,-0.0016095322,-5.9854546,-49.04087,-18.246056,0.0020654364
1.6666666,0.72727275,-0.0013847761,-0.0017262176,-6.137388,-51.380005,-18.703398,0.002213014
1.6666666,0.7676768,-0.0014758892,-0.0018485207,-6.269138,-53.699615,-19.119043,0.0023654338
1.6666666,0.8080808,-0.0015673861,-0.0019763336,-6.386525,-55.998608,-19.494026,0.002522418
1.6666666,0.8484849,-0.0016588718,-0.0021095816,-6.494405,-58.275375,-19.829336,0.0026836896
1.6666666,0.8888889,-0.0017498024,-0.0022483189,-6.5974894,-60.529472,-20.127014,0.0028489905
1.6666666,0.9292929,-0.0018399619,-0.002392469,-6.7015514,-62.759556,-20.38887,0.0030181727
1.6666666,0.969697,-0.0019289292,-0.002541935,-6.8112044,-64.96469,-20.617659,0.0031909563
1.6666666,1.010101,-0.0020161904,-0.0026966278,-6.9304047,-67.1437,-20.816189,0.0033670203
1.6666666,1.050505,-0.0021015853,-0.0028564557,-7.064351,-69.29548,-20.987707,0.0035462657
1.6666666,1.0909091,-0.002184596,-0.0030214265,-7.2172413,-71.420135,-21.135818,0.0037284684
1.6666666,1.1313131,-0.0022649579,-0.0031913854,-7.3927207,-73.51632,-21.264448,0.003913435
1.6666666,1.1717172,-0.0023423843,-0.003366243,-7.5950418,-75.58405,-21.377602,0.0041010194
1.6666666,1.2121212,-0.002416607,-0.0035459567,-7.827623,-77.62373,-21.479973,0.00429113
1.6666666,1.2525252,-0.002487272,-0.003730327,-8.093476,-79.6348,-21.576004,0.00448351
1.6666666,1.2929293,-0.0025542155,-0.0039192624,-8.396118,-81.61859,-21.670597,0.0046781017
1.6666666,1.3333334,-0.002617348,-0.004112756,-8.73763,-83.576035,-21.768536,0.004874964
1.6666666,1.3737373,-0.0026762858,-0.0043105967,-9.121113,-85.50831,-21.8748,0.00507383
1.6666666,1.4141414,-0.0027310513,-0.0045127664,-9.547565,-87.41746,-21.99477,0.0052748173
1.6666666,1.4545455,-0.0027814843,-0.0047190674,-10.019518,-89.30561,-22.133165,0.0054777963
1.6666666,1.4949495,-0.002827458,-0.0049294494,-10.537066,-91.17503,-22.295485,0.0056827804
1.6666666,1.5353535,-0.002869036,-0.005143903,-11.101935,-93.029434,-22.487041,0.005889916
1.6666666,1.5757576,-0.0029062852,-0.005362192,-11.714237,-94.87093,-22.71263,0.0060991473
1.6666666,1.6161616,-0.0029391497,-0.00558435,-12.373908,-96.70386,-22.977123,0.0063105915
1.6666666,1.6565657,-0.0029677115,-0.005810274,-13.080779,-98.53156,-23.285475,0.0065243077
1.6666666,1.6969697,-0.0029921904,-0.006039912,-13.834072,-100.35799,-23.642628,0.0067404555
1.6666666,1.7373737,-0.0030126572,-0.0062731914,-14.633298,-102.187355,-24.052904,0.006959097
1.6666666,1.7777778,-0.0030293055,-0.006510075,-15.476641,-104.02297,-24.519999,0.007180374
1.6666666,1.8181819,-0.0030424409,-0.0067505892,-16.362947,-105.86941,-25.048874,0.007404519
1.6666666,1.8585858,-0.0030522272,-0.0069946814,-17.29054,-107.73014,-25.642605,0.0076316223
1.6666666,1.8989899,-0.003058996,-0.007242378,-18.257517,-109.608734,-26.305113,0.007861901
1.6666666,1.939394,-0.003063079,-0.007493699,-19.262936,-111.50854,-27.039284,0.008095553
1.6666666,1.979798,-0.0030648,-0.0077486075,-20.30488,-113.43217,-27.84787,0.008332701
1.6666666,2.020202,-0.0030644946,-0.0080071315,-21.380863,-115.38093,-28.733315,0.008573522
1.6666666,2.060606,-0.0030625015,-0.008269297,-22.491404,-117.357,-29.697208,0.008818174
1.6666666,2.10101,-0.0030593015,-0.0085351635,-23.634655,-119.36056,-30.741259,0.009066882
1.6666666,2.1414142,-0.0030552037,-0.008804822,-24.811525,-121.39262,-31.866781,0.009319827
1.6666666,2.1818182,-0.0030504428,-0.009078205,-26.01979,-123.45044,-33.073273,0.009577003
1.6666666,2.2222223,-0.0030454993,-0.009355376,-27.26366,-125.53295,-34.361298,0.009838603
1.6666666,2.2626262,-0.0030406192,-0.009636363,-28.542955,-127.636314,-35.7295,0.010104694
1.6666666,2.3030303,-0.003036093,-0.009921106,-29.861538,-129.75632,-37.17668,0.010375269
1.6666666,2.3434343,-0.0030322485,-0.010209728,-31.223902,-131.88857,-38.700737,0.010650497
1.6666666,2.3838384,-0.003029149,-0.010502074,-32.634365,-134.02553,-40.298172,0.010930201
1.6666666,2.4242425,-0.0030270368,-0.010798147,-34.099277,-136.15958,-41.96576,0.011214407
1.6666666,2.4646466,-0.0030258782,-0.011097897,-35.628468,-138.28328,-43.69827,0.011503011
1.6666666,2.5050504,-0.0030257702,-0.011401171,-37.22943,-140.38547,-45.490726,0.011795846
1.6666666,2.5454545,-0.003026504,-0.011707857,-38.913784,-142.4564,-47.335323,0.0120927105
1.6666666,2.5858586,-0.0030279271,-0.012017695,-40.694885,-144.48517,-49.225178,0.012393278
1.6666666,2.6262627,-0.0030297227,-0.012330573,-42.58581,-146.45966,-51.150753,0.012697333
1.6666666,2.6666667,-0.0030314699,-0.012646085,-44.60238,-148.3667,-53.10237,0.013004355
1.6666666,2.7070708,-0.0030325986,-0.012964105,-46.76091,-150.19392,-55.06863,0.013314079
1.6666666,2.7474747,-0.0030323304,-0.013284052,-49.080177,-151.9284,-57.036884,0.013625749
1.6666666,2.7878788,-0.003029976,-0.013605621,-51.57806,-153.55676,-58.99329,0.013938927
1.6666666,2.8282828,-0.0030243918,-0.013928348,-54.27361,-155.06473,-60.922405,0.014252923
1.6666666,2.868687,-0.0030144863,-0.014251586,-57.18592,-156.43956,-62.807976,0.014566909
1.6666666,2.909091,-0.0029988326,-0.014574934,-60.334866,-157.6696,-64.63227,0.014880246
1.6666666,2.9494948,-0.0029762127,-0.014897555,-63.736565,-158.73918,-66.37694,0.015191939
1.6666666,2.989899,-0.0029446892,-0.015218943,-67.408745,-159.63823,-68.02107,0.015501208
1.6666666,3.030303,-0.0029025897,-0.0155383125,-71.362495,-160.3523,-69.54514,0.015807092
1.6666666,3.070707,-0.0028478615,-0.01585485,-75.609474,-160.87024,-70.92605,0.016108587
1.6666666,3.1111112,-0.0027783103,-0.016167846,-80.15255,-161.17862,-72.14255,0.016404824
1.6666666,3.1515152,-0.0026916042,-0.016476322,-84.99301,-161.26451,-73.17204,0.016694726
1.6666666,3.191919,-0.0025853813,-0.01677952,-90.12377,-161.11575,-73.991844,0.016977528
1.6666666,3.2323232,-0.0024569742,-0.017076533,-95.52971,-160.71666,-74.58074,0.017252382
1.6666666,3.2727273,-0.0023035072,-0.017366424,-101.18628,-160.05246,-74.91565,0.017518528
1.6666666,3.3131313,-0.002122242,-0.017648268,-107.05877,-159.10596,-74.97671,0.017775413
1.6666666,3.3535354,-0.0019101091,-0.017921198,-113.10231,-157.85782,-74.744774,0.018022705
1.6666666,3.3939395,-0.0016641803,-0.01818424,-119.25863,-156.28679,-74.20283,0.018260233
1.6666666,3.4343433,-0.0013814233,-0.018436465,-125.45889,-154.36942,-73.33468,0.018488148
1.6666666,3.4747474,-0.0010585003,-0.018677097,-131.61716,-152.07774,-72.12807,0.018707067
1.6666666,3.5151515,-0.00069248304,-0.018905222,-137.63591,-149.38176,-70.57343,0.018917901
1.6666666,3.5555556,-0.00028018653,-0.019119985,-143.40388,-146.24834,-68.66339,0.019122038
1.6666666,3.5959597,0.0001812987,-0.0193206,-148.79764,-142.64008,-66.39442,0.019321451
1.6666666,3.6363637,0.0006949939,-0.019506373,-153.67569,-138.51627,-63.76756,0.01951875
1.6666666,3.6767676,0.0012637265,-0.019676574,-157.88983,-133.8338,-60.78634,0.019717114
1.6666666,3.7171717,0.0018901303,-0.019830588,-161.27724,-128.54535,-57.45855,0.019920463
1.6666666,3.7575758,0.002576638,-0.019967727,-163.6699,-122.60305,-53.79531,0.020133285
1.6666666,3.7979798,0.0033254474,-0.020087522,-164.88957,-115.95592,-49.812374,0.020360922
1.6666666,3.838384,0.004138775,-0.020189583,-164.75404,-108.552605,-45.527145,0.020609433
1.6666666,3.878788,0.0050181597,-0.02027347,-163.07944,-100.34176,-40.962418,0.020885292
1.6666666,3.9191918,0.0059652366,-0.020338826,-159.6821,-91.2724,-36.14168,0.021195563
1.6666666,3.959596,0.006980952,-0.020385362,-154.38039,-81.29554,-31.091917,0.021547545
1.6666666,4.0,0.00806636,-0.020412903,-147.00049,-70.36506,-25.841194,0.021948867
1.7171717,0.04040404,-0.00021899492,-0.0005136281,3.7220867,-9.494492,-5.9935846,0.000558366
1.7171717,0.08080808,-0.00025177002,-0.0005434565,2.5549738,-12.167714,-6.83003,0.0005989433
1.7171717,0.121212125,-0.00028956681,-0.00057868287,1.4884174,-14.816893,-7.6677756,0.00064708793
1.7171717,0.16161616,-0.00033235922,-0.0006192755,0.5190962,-17.442469,-8.502071,0.0007028263
1.7171717,0.2020202,-0.00038005784,-0.0006652884,-0.35803673,-20.046095,-9.3281975,0.0007661936
1.7171717,0.24242425,-0.00043223798,-0.0007167831,-1.1473595,-22.628607,-10.141678,0.00083702314
1.7171717,0.28282827,-0.00048907846,-0.00077386573,-1.8537396,-25.191277,-10.937986,0.00091545936
1.7171717,0.32323232,-0.0005500354,-0.00083644874,-2.4822824,-27.734879,-11.713338,0.0010010921
1.7171717,0.36363637,-0.0006153174,-0.0009045843,-3.0387757,-30.260792,-12.463928,0.0010940238
1.7171717,0.4040404,-0.000684198,-0.0009784456,-3.5277352,-32.76971,-13.186263,0.0011939359
1.7171717,0.44444445,-0.00075654685,-0.0010578632,-3.954988,-35.262577,-13.87723,0.0013005529
1.7171717,0.4848485,-0.0008321963,-0.0011429936,-4.326464,-37.740242,-14.5338955,0.0014138547
1.7171717,0.5252525,-0.00091071054,-0.0012337975,-4.6472864,-40.202946,-15.154328,0.001533509
1.7171717,0.56565654,-0.0009918548,-0.0013302546,-4.9228168,-42.65088,-15.736545,0.0016593231
1.7171717,0.6060606,-0.0010752268,-0.0014325436,-5.159387,-45.084953,-16.278694,0.0017911711
1.7171717,0.64646465,-0.0011603571,-0.0015404876,-5.3615184,-47.504204,-16.780163,0.0019286085
1.7171717,0.68686867,-0.0012469813,-0.00165415,-5.5352173,-49.909122,-17.240011,0.002071515
1.7171717,0.72727275,-0.0013347641,-0.0017735045,-5.686028,-52.299103,-17.658197,0.002219665
1.7171717,0.7676768,-0.0014232136,-0.0018985271,-5.818475,-54.673145,-18.035194,0.0023727498
1.7171717,0.8080808,-0.0015120618,-0.002029337,-5.938788,-57.0315,-18.371649,0.0025307192
1.7171717,0.8484849,-0.001600802,-0.0021656752,-6.0509596,-59.37208,-18.668879,0.0026930866
1.7171717,0.8888889,-0.0016891509,-0.0023076609,-6.1608634,-61.695126,-18.928335,0.0028598127
1.7171717,0.9292929,-0.0017765723,-0.0024551898,-6.2725716,-63.99878,-19.152279,0.003030539
1.7171717,0.969697,-0.0018629879,-0.0026081968,-6.3913603,-66.28225,-19.343157,0.0032052167
1.7171717,1.010101,-0.001947742,-0.002766624,-6.521186,-68.54456,-19.503637,0.0033834758
1.7171717,1.050505,-0.0020306222,-0.0029304996,-6.6668096,-70.78462,-19.637346,0.0035652847
1.7171717,1.0909091,-0.0021112673,-0.0030996427,-6.8320303,-73.00158,-19.747938,0.0037503645
1.7171717,1.1313131,-0.002189424,-0.0032739677,-7.020831,-75.19448,-19.838762,0.0039385837
1.7171717,1.1717172,-0.0022646822,-0.0034534894,-7.2374377,-77.36375,-19.914452,0.0041298154
1.7171717,1.2121212,-0.0023368746,-0.0036380086,-7.484247,-79.507545,-19.979527,0.0043238974
1.7171717,1.2525252,-0.002405692,-0.003827542,-7.7652993,-81.62681,-20.038353,0.0045207776
1.7171717,1.2929293,-0.002470959,-0.004021812,-8.083428,-83.72135,-20.09607,0.0047202343
1.7171717,1.3333334,-0.0025324114,-0.00422094,-8.441225,-85.79211,-20.157555,0.004922341
1.7171717,1.3737373,-0.0025899746,-0.004424656,-8.84099,-87.839836,-20.22792,0.0051269433
1.7171717,1.4141414,-0.0026434623,-0.00463292,-9.284246,-89.86542,-20.312826,0.0053340266
1.7171717,1.4545455,-0.0026927404,-0.004845634,-9.773238,-91.87087,-20.416681,0.005543557
1.7171717,1.4949495,-0.0027378574,-0.0050627757,-10.3084135,-93.85853,-20.545744,0.005755655
1.7171717,1.5353535,-0.0027787462,-0.005284095,-10.89188,-95.830246,-20.704441,0.0059701833
1.7171717,1.5757576,-0.0028153546,-0.005509643,-11.523279,-97.78951,-20.898542,0.006187276
1.7171717,1.6161616,-0.0028477944,-0.0057392735,-12.202755,-99.73874,-21.133114,0.0064069643
1.7171717,1.6565657,-0.0028761476,-0.0059729777,-12.930835,-101.68196,-21.412714,0.0066293804
1.7171717,1.6969697,-0.0029003955,-0.0062105786,-13.705895,-103.62248,-21.742558,0.0068544573
1.7171717,1.7373737,-0.0029208846,-0.0064520873,-14.528215,-105.564285,-22.127068,0.0070824428
1.7171717,1.7777778,-0.0029376633,-0.006697545,-15.396142,-107.51166,-22.570538,0.007313479
1.7171717,1.8181819,-0.0029510558,-0.0069468133,-16.309021,-109.46893,-23.07723,0.007547645
1.7171717,1.8585858,-0.0029612184,-0.007199902,-17.263643,-111.43911,-23.651028,0.007785076
1.7171717,1.8989899,-0.0029684938,-0.0074568726,-18.260136,-113.42746,-24.295303,0.008026014
1.7171717,1.939394,-0.0029731132,-0.007717615,-19.295689,-115.43698,-25.013247,0.008270489
1.7171717,1.979798,-0.0029755645,-0.0079822205,-20.368967,-117.47127,-25.807756,0.008518793
1.7171717,2.020202,-0.0029759668,-0.008250715,-21.47879,-119.53386,-26.681194,0.0087710135
1.7171717,2.060606,-0.002974756,-0.00852317,-22.62339,-121.62704,-27.63505,0.0090273805
1.7171717,2.10101,-0.0029723868,-0.008799473,-23.800968,-123.752174,-28.671595,0.0092879385
1.7171717,2.1414142,-0.0029691048,-0.009079784,-25.011034,-125.9104,-29.791553,0.009552908
1.7171717,2.1818182,-0.0029653758,-0.009364173,-26.254166,-128.10332,-30.995104,0.009822483
1.7171717,2.2222223,-0.002961427,-0.009652674,-27.529783,-130.3296,-32.2828,0.010096741
1.7171717,2.2626262,-0.0029576868,-0.00994526,-28.83978,-132.58717,-33.65352,0.0103757465
1.7171717,2.3030303,-0.0029543564,-0.010242082,-30.184965,-134.87422,-35.106113,0.010659666
1.7171717,2.3434343,-0.0029517747,-0.010543078,-31.569372,-137.18658,-36.638947,0.010948492
1.7171717,2.3838384,-0.002950091,-0.010848308,-32.99613,-139.51924,-38.249386,0.011242279
1.7171717,2.4242425,-0.0029495768,-0.011157727,-34.471455,-141.86629,-39.93387,0.011541008
1.7171717,2.4646466,-0.0029501878,-0.011471335,-36.00057,-144.22029,-41.68829,0.011844625
1.7171717,2.5050504,-0.0029519908,-0.01178908,-37.59217,-146.57242,-43.508,0.012153052
1.7171717,2.5454545,-0.002955027,-0.012110874,-39.255997,-148.91335,-45.38683,0.012466172
1.7171717,2.5858586,-0.002958987,-0.012436608,-41.00236,-151.2331,-47.317806,0.012783771
1.7171717,2.6262627,-0.0029637143,-0.012766087,-42.844994,-153.51932,-49.293392,0.013105594
1.7171717,2.6666667,-0.002968803,-0.01309908,-44.796654,-155.76015,-51.304268,0.013431295
1.7171717,2.7070708,-0.0029737763,-0.013435453,-46.87361,-157.9418,-53.34109,0.013760623
1.7171717,2.7474747,-0.0029779114,-0.01377479,-49.09407,-160.05208,-55.391716,0.014093005
1.7171717,2.7878788,-0.002980549,-0.014116824,-51.475853,-162.07628,-57.444206,0.014428041
1.7171717,2.8282828,-0.0029808655,-0.014461083,-54.038937,-164.00005,-59.484207,0.014765111
1.7171717,2.868687,-0.0029775538,-0.014807086,-56.804535,-165.80974,-61.496758,0.015103498
1.7171717,2.909091,-0.002969522,-0.015154377,-59.792652,-167.49103,-63.465916,0.015442577
1.7171717,2.9494948,-0.0029552989,-0.015502386,-63.023964,-169.02937,-65.373924,0.015781563
1.7171717,2.989899,-0.0029331967,-0.015850406,-66.51989,-170.41174,-67.201065,0.016119523
1.7171717,3.030303,-0.0029017143,-0.016197767,-70.2986,-171.62392,-68.92837,0.016455624
1.7171717,3.070707,-0.0028587356,-0.01654382,-74.378006,-172.65346,-70.53404,0.016788995
1.7171717,3.1111112,-0.002802115,-0.016887669,-78.770035,-173.4863,-71.99624,0.017118562
1.7171717,3.1515152,-0.0027297027,-0.017228495,-83.48497,-174.10928,-73.29207,0.017443404
1.7171717,3.191919,-0.0026388466,-0.017565537,-88.5279,-174.51042,-74.39904,0.017762646
1.7171717,3.2323232,-0.0025270768,-0.01789774,-93.89469,-174.67361,-75.29293,0.018075265
1.7171717,3.2727273,-0.0023914948,-0.018224288,-99.57652,-174.58618,-75.95132,0.018380532
1.7171717,3.3131313,-0.002229277,-0.018544056,-105.55365,-174.23111,-76.35072,0.018677572
1.7171717,3.3535354,-0.00203735,-0.01885628,-111.795586,-173.5913,-76.46986,0.018966025
1.7171717,3.3939395,-0.0018123724,-0.01915989,-118.26074,-172.64674,-76.28814,0.019245418
1.7171717,3.4343433,-0.001551304,-0.019453876,-124.896034,-171.37646,-75.78601,0.01951563
1.7171717,3.4747474,-0.0012508072,-0.019737288,-131.63158,-169.75363,-74.94743,0.019776883
1.7171717,3.5151515,-0.000907477,-0.020009175,-138.3859,-167.75223,-73.75779,0.020029742
1.7171717,3.5555556,-0.0005179383,-0.020268545,-145.05917,-165.33813,-72.20599,0.02027516
1.7171717,3.5959597,-7.8801066e-05,-0.0205146,-151.53561,-162.47545,-70.28433,0.02051475
1.7171717,3.6363637,0.00041303784,-0.020746477,-157.68765,-159.12459,-67.988075,0.020750588
1.7171717,3.6767676,0.00096095726,-0.020963103,-163.37,-155.24034,-65.31606,0.020985115
1.7171717,3.7171717,0.0015680157,-0.021163967,-168.4222,-150.77551,-62.27306,0.021221973
1.7171717,3.7575758,0.0022372268,-0.021348245,-172.67003,-145.67635,-58.866386,0.021465153
1.7171717,3.7979798,0.002971094,-0.021515146,-175.93196,-139.88864,-55.10709,0.021719322
1.7171717,3.838384,0.0037722476,-0.021664161,-178.01262,-133.35376,-51.011944,0.021990128
1.7171717,3.878788,0.0046430863,-0.021794729,-178.70752,-126.01099,-46.60087,0.022283817
1.7171717,3.9191918,0.005585376,-0.021906268,-177.81326,-117.800156,-41.896362,0.022607101
1.7171717,3.959596,0.0066009834,-0.02199851,-175.1203,-108.659805,-36.925938,0.022967529
1.7171717,4.0,0.007691089,-0.022070974,-170.42247,-98.53025,-31.719442,0.02337265
1.7676767,0.04040404,-0.00019472092,-0.0005266927,3.845206,-9.792462,-5.6418014,0.0005615349
1.7676767,0.08080808,-0.0002274476,-0.00055751763,2.7046404,-12.501635,-6.4298763,0.00060212816
1.7676767,0.121212125,-0.00026505813,-0.0005937349,1.6652156,-15.183397,-7.219567,0.00065021304
1.7676767,0.16161616,-0.00030724332,-0.00063543953,0.7219132,-17.839762,-8.006375,0.00070582
1.7676767,0.2020202,-0.0003541112,-0.0006827172,-0.1292017,-20.471678,-8.785787,0.00076908874
1.7676767,0.24242425,-0.00040534884,-0.000735512,-0.8935609,-23.081087,-9.552949,0.0008398128
1.7676767,0.28282827,-0.00046094507,-0.00079395995,-1.5762763,-25.669258,-10.303974,0.0009180647
1.7676767,0.32323232,-0.00052047893,-0.0008580778,-2.1824136,-28.23797,-11.034808,0.0010035915
1.7676767,0.36363637,-0.00058401376,-0.0009278152,-2.7177842,-30.788496,-11.741878,0.001096318
1.7676767,0.4040404,-0.0006510727,-0.0010033213,-3.1874032,-33.32243,-12.421473,0.0011960557
1.7676767,0.44444445,-0.0007214919,-0.0010844953,-3.597304,-35.840893,-13.070541,0.001302567
1.7676767,0.4848485,-0.0007948838,-0.0011714697,-3.953471,-38.345425,-13.686429,0.0014156912
1.7676767,0.5252525,-0.00087117776,-0.0012641866,-4.2606378,-40.836174,-14.266738,0.001535291
1.7676767,0.56565654,-0.0009498894,-0.0013627484,-4.525198,-43.314823,-14.809509,0.0016611362
1.7676767,0.6060606,-0.0010307096,-0.0014670119,-4.7526045,-45.781693,-15.313208,0.0017928989
1.7676767,0.64646465,-0.0011132807,-0.0015771892,-4.9484544,-48.237144,-15.776612,0.0019305232
1.7676767,0.68686867,-0.0011972673,-0.0016931314,-5.117721,-50.68137,-16.199274,0.0020736787
1.7676767,0.72727275,-0.0012823045,-0.0018149335,-5.266275,-53.114426,-16.580717,0.002222226
1.7676767,0.7676768,-0.0013680793,-0.0019424055,-5.398889,-55.535534,-16.921299,0.0023758325
1.7676767,0.8080808,-0.0014541149,-0.0020758156,-5.5207496,-57.944927,-17.221664,0.0025344547
1.7676767,0.8484849,-0.0015401132,-0.0022149142,-5.6372867,-60.341698,-17.483036,0.0026977386
1.7676767,0.8888889,-0.0016256794,-0.002359746,-5.7527714,-62.725334,-17.707134,0.0028655252
1.7676767,0.9292929,-0.001710441,-0.0025103,-5.8721204,-65.09494,-17.895582,0.003037633
1.7676767,0.969697,-0.0017940812,-0.0026665516,-5.999799,-67.44921,-18.050877,0.003213911
1.7676767,1.010101,-0.0018762872,-0.002828328,-6.1403246,-69.78748,-18.176325,0.0033940969
1.7676767,1.050505,-0.0019565858,-0.0029957518,-6.29721,-72.10858,-18.274593,0.003578094
1.7676767,1.0909091,-0.002034884,-0.0031685121,-6.4749126,-74.411125,-18.349415,0.0037656634
1.7676767,1.1313131,-0.0021106414,-0.003346838,-6.677223,-76.69536,-18.405056,0.003956783
1.7676767,1.1717172,-0.0021837018,-0.0035305284,-6.90739,-78.95961,-18.44533,0.004151287
1.7676767,1.2121212,-0.0022537597,-0.0037194379,-7.169271,-81.20361,-18.47458,0.004348983
1.7676767,1.2525252,-0.0023205988,-0.003913533,-7.4651256,-83.42675,-18.497791,0.004549826
1.7676767,1.2929293,-0.0023840778,-0.004112756,-7.7985144,-85.629326,-18.519934,0.0047537973
1.7676767,1.3333334,-0.002443824,-0.0043168757,-8.171515,-87.81078,-18.545986,0.004960614
1.7676767,1.3737373,-0.0024999194,-0.004525967,-8.58695,-89.972725,-18.581184,0.0051704906
1.7676767,1.4141414,-0.0025520213,-0.004739927,-9.045527,-92.11459,-18.630827,0.005383282
1.7676767,1.4545455,-0.0026001558,-0.0049584806,-9.550192,-94.238716,-18.700354,0.0055988696
1.7676767,1.4949495,-0.0026442297,-0.005181795,-10.101506,-96.34619,-18.795029,0.005817469
1.7676767,1.5353535,-0.0026843213,-0.0054096133,-10.700523,-98.43906,-18.920565,0.006038998
1.7676767,1.5757576,-0.0027202442,-0.0056418367,-11.347955,-100.51955,-19.081917,0.0062633897
1.7676767,1.6161616,-0.0027521364,-0.005878495,-12.044153,-102.59073,-19.284353,0.0064908364
1.7676767,1.6565657,-0.0027799457,-0.006119482,-12.788813,-104.655266,-19.533041,0.006721321
1.7676767,1.6969697,-0.0028041117,-0.0063646454,-13.581698,-106.71682,-19.833128,0.0069549805
1.7676767,1.7373737,-0.0028245002,-0.006614104,-14.421652,-108.77894,-20.189035,0.007191952
1.7676767,1.7777778,-0.0028413348,-0.0068676416,-15.308179,-110.845924,-20.605316,0.007432206
1.7676767,1.8181819,-0.0028548762,-0.0071253106,-16.238993,-112.92108,-21.086239,0.0076759607
1.7676767,1.8585858,-0.002865363,-0.0073870905,-17.214643,-115.01013,-21.635666,0.007923346
1.7676767,1.8989899,-0.0028730296,-0.007652905,-18.23133,-117.115364,-22.25743,0.008174427
1.7676767,1.939394,-0.0028782375,-0.007922923,-19.288399,-119.2427,-22.954268,0.008429529
1.7676767,1.979798,-0.0028811246,-0.008197041,-20.383865,-121.39573,-23.729427,0.008688634
1.7676767,2.020202,-0.0028821267,-0.008475244,-21.515718,-123.577866,-24.585037,0.008951895
1.7676767,2.060606,-0.0028817803,-0.008757656,-22.683119,-125.79294,-25.523582,0.009219609
1.7676767,2.10101,-0.0028801002,-0.009044297,-23.883316,-128.04378,-26.545986,0.009491801
1.7676767,2.1414142,-0.00287769,-0.009335168,-25.11644,-130.33296,-27.653873,0.009768647
1.7676767,2.1818182,-0.0028747767,-0.009630481,-26.381567,-132.66302,-28.84739,0.010050398
1.7676767,2.2222223,-0.002871815,-0.009930184,-27.67741,-135.03308,-30.126951,0.010337112
1.7676767,2.2626262,-0.0028690137,-0.010234345,-29.00456,-137.44424,-31.491682,0.010628878
1.7676767,2.3030303,-0.0028667264,-0.010543011,-30.365595,-139.89601,-32.94054,0.010925804
1.7676767,2.3434343,-0.0028652884,-0.010856371,-31.760181,-142.38513,-34.47244,0.01122812
1.7676767,2.3838384,-0.0028647743,-0.011174347,-33.192432,-144.90892,-36.0842,0.011535726
1.7676767,2.4242425,-0.0028655045,-0.01149703,-34.66614,-147.46332,-37.773815,0.011848748
1.7676767,2.4646466,-0.0028675906,-0.01182444,-36.187626,-150.04213,-39.53677,0.012167188
1.7676767,2.5050504,-0.0028710626,-0.012156505,-37.7613,-152.63794,-41.368908,0.012490942
1.7676767,2.5454545,-0.0028758422,-0.012493404,-39.396317,-155.24391,-43.26517,0.012820125
1.7676767,2.5858586,-0.0028818585,-0.01283481,-41.102028,-157.84862,-45.219635,0.01315437
1.7676767,2.6262627,-0.002888959,-0.0131808445,-42.88965,-160.44344,-47.225582,0.01349373
1.7676767,2.6666667,-0.0028967522,-0.013531242,-44.7721,-163.0153,-49.274246,0.013837835
1.7676767,2.7070708,-0.0029048882,-0.013885854,-46.763847,-165.55183,-51.35768,0.014186448
1.7676767,2.7474747,-0.0029126666,-0.014244463,-48.88093,-168.03967,-53.465336,0.014539201
1.7676767,2.7878788,-0.0029195957,-0.014606809,-51.14319,-170.46535,-55.586025,0.014895735
1.7676767,2.8282828,-0.0029246435,-0.014972564,-53.56812,-172.81369,-57.707554,0.01525553
1.7676767,2.868687,-0.0029268824,-0.01534133,-56.178806,-175.07024,-59.81655,0.0156180365
1.7676767,2.909091,-0.0029252432,-0.015712656,-58.99643,-177.21983,-61.898056,0.015982635
1.7676767,2.9494948,-0.002918288,-0.016085979,-62.0451,-179.24731,-63.935844,0.01634855
1.7676767,2.989899,-0.0029044785,-0.016460799,-65.34925,-181.13916,-65.91198,0.01671508
1.7676767,3.030303,-0.002882395,-0.016836535,-68.93231,-182.87979,-67.80818,0.017081486
1.7676767,3.070707,-0.0028498508,-0.017212283,-72.81611,-184.45523,-69.60373,0.017446613
1.7676767,3.1111112,-0.002804961,-0.017587543,-77.024254,-185.85228,-71.27773,0.017809814
1.7676767,3.1515152,-0.0027455203,-0.017961308,-81.57444,-187.05717,-72.808754,0.018169934
1.7676767,3.191919,-0.0026690625,-0.018332854,-86.48234,-188.05663,-74.17195,0.018526128
1.7676767,3.2323232,-0.0025729276,-0.01870121,-91.758316,-188.83765,-75.344604,0.018877374
1.7676767,3.2727273,-0.0024544932,-0.019065496,-97.408195,-189.38727,-76.302444,0.019222843
1.7676767,3.3131313,-0.0023106895,-0.01942471,-103.426186,-189.68893,-77.021324,0.019561663
1.7676767,3.3535354,-0.0021384098,-0.019777782,-109.80143,-189.7295,-77.476234,0.01989305
1.7676767,3.3939395,-0.0019345433,-0.02012378,-116.51071,-189.49017,-77.64494,0.020216553
1.7676767,3.4343433,-0.0016955733,-0.020461582,-123.519806,-188.95337,-77.50502,0.020531714
1.7676767,3.4747474,-0.0014181659,-0.02079023,-130.77942,-188.09688,-77.03579,0.020838542
1.7676767,3.5151515,-0.0010986514,-0.021108612,-138.22559,-186.89528,-76.218666,0.021137184
1.7676767,3.5555556,-0.00073356554,-0.021415696,-145.77873,-185.3197,-75.03781,0.021428255
1.7676767,3.5959597,-0.00031916425,-0.021710485,-153.34302,-183.33699,-73.48009,0.021712832
1.7676767,3.6363637,0.0001479797,-0.021991912,-160.80644,-180.91121,-71.535904,0.02199241
1.7676767,3.6767676,0.00067177415,-0.02225921,-168.03,-177.99747,-69.199,0.022269344
1.7676767,3.7171717,0.0012554191,-0.022511225,-174.87016,-174.54985,-66.467834,0.022546204
1.7676767,3.7575758,0.001902461,-0.02274723,-181.15677,-170.51459,-63.346333,0.022826647
1.7676767,3.7979798,0.0026159808,-0.02296631,-186.70508,-165.83405,-59.84041,0.023114817
1.7676767,3.838384,0.00339913,-0.023167633,-191.32031,-160.44765,-55.96181,0.023415664
1.7676767,3.878788,0.004254669,-0.023350645,-194.78854,-154.28864,-51.72825,0.023735099
1.7676767,3.9191918,0.005185321,-0.023514595,-196.8866,-147.2871,-47.159748,0.02407953
1.7676767,3.959596,0.006193176,-0.02365885,-197.38696,-139.37335,-42.28193,0.024456013
1.7676767,4.0,0.007280145,-0.023783013,-196.05247,-130.47371,-37.123203,0.024872318
1.8181818,0.04040404,-0.00016975775,-0.0005364865,3.9080327,-10.0875635,-5.247849,0.0005627037
1.8181818,0.08080808,-0.0002024211,-0.00056808256,2.7961757,-12.827433,-5.9872055,0.0006030689
1.8181818,0.121212125,-0.00023954734,-0.000605233,1.785635,-15.537113,-6.7287703,0.0006509147
1.8181818,0.16161616,-0.00028115138,-0.0006480012,0.8706828,-18.219046,-7.4681726,0.0007063651
1.8181818,0.2020202,-0.0003270805,-0.000696335,0.046840936,-20.874796,-8.200726,0.00076932705
1.8181818,0.24242425,-0.00037717074,-0.0007504318,-0.6905751,-23.506126,-8.922223,0.0008398843
1.8181818,0.28282827,-0.0004313253,-0.0008101575,-1.3476932,-26.115292,-9.628547,0.0009178217
1.8181818,0.32323232,-0.00048937276,-0.00087560527,-1.9291725,-28.703878,-10.315599,0.0010030804
1.8181818,0.36363637,-0.00055110827,-0.0009468328,-2.4418564,-31.274218,-10.979792,0.0010955422
1.8181818,0.4040404,-0.0006162524,-0.001023788,-2.8903832,-33.827923,-11.617752,0.0011949514
1.8181818,0.44444445,-0.000684537,-0.0011066105,-3.2811978,-36.36677,-12.226315,0.0013012217
1.8181818,0.4848485,-0.00075580925,-0.0011952035,-3.6195984,-38.892006,-12.802674,0.0014141283
1.8181818,0.5252525,-0.00082962215,-0.0012897216,-3.9118874,-41.405853,-13.34442,0.0015335106
1.8181818,0.56565654,-0.0009058863,-0.0013900213,-4.1635494,-43.908936,-13.849755,0.0016591531
1.8181818,0.6060606,-0.0009840988,-0.0014961995,-4.3803234,-46.402378,-14.316815,0.0017908276
1.8181818,0.64646465,-0.0010640733,-0.001608232,-4.567563,-48.887127,-14.74448,0.0019283834
1.8181818,0.68686867,-0.0011453182,-0.0017262436,-4.730862,-51.363865,-15.131984,0.0020716349
1.8181818,0.72727275,-0.0012275502,-0.0018501412,-4.875586,-53.832615,-15.479113,0.0022203382
1.8181818,0.7676768,-0.0013105571,-0.0019799396,-5.0071645,-56.294037,-15.786093,0.0023743885
1.8181818,0.8080808,-0.0013937615,-0.0021156464,-5.1298504,-58.74749,-16.053125,0.002533482
1.8181818,0.8484849,-0.0014769249,-0.0022571385,-5.2488527,-61.192493,-16.281431,0.0026974026
1.8181818,0.8888889,-0.0015597455,-0.002404539,-5.3690186,-63.629097,-16.47284,0.0028661147
1.8181818,0.9292929,-0.0016416945,-0.0025577936,-5.4945793,-66.05651,-16.62879,0.0030393205
1.8181818,0.969697,-0.0017226413,-0.0027168225,-5.6303387,-68.47388,-16.751797,0.0032169267
1.8181818,1.010101,-0.0018021874,-0.002881609,-5.780094,-70.880264,-16.844507,0.003398757
1.8181818,1.050505,-0.001879923,-0.0030521695,-5.9476924,-73.27496,-16.910416,0.0035846687
1.8181818,1.0909091,-0.0019556098,-0.00322829,-6.136665,-75.656296,-16.952765,0.0037744227
1.8181818,1.1313131,-0.0020290017,-0.0034101047,-6.3514576,-78.02421,-16.975569,0.0039680805
1.8181818,1.1717172,-0.0020997636,-0.0035974402,-6.594523,-80.377365,-16.982563,0.004165403
1.8181818,1.2121212,-0.0021675788,-0.0037903134,-6.869403,-82.715195,-16.9788,0.004366334
1.8181818,1.2525252,-0.002232425,-0.003988499,-7.1792245,-85.037056,-16.9686,0.0045707594
1.8181818,1.2929293,-0.002293978,-0.0041920636,-7.5264115,-87.34268,-16.95702,0.004778675
1.8181818,1.3333334,-0.002352003,-0.0044008344,-7.9134097,-89.63177,-16.9493,0.004989916
1.8181818,1.3737373,-0.0024063624,-0.0046148133,-8.342254,-91.90456,-16.950583,0.005204525
1.8181818,1.4141414,-0.0024570562,-0.004833838,-8.814414,-94.16088,-16.96612,0.005422464
1.8181818,1.4545455,-0.0025039017,-0.0050578527,-9.332702,-96.40224,-17.001669,0.0056437044
1.8181818,1.4949495,-0.0025468506,-0.005286753,-9.896999,-98.62952,-17.062464,0.0058682375
1.8181818,1.5353535,-0.0025859028,-0.0055205896,-10.509317,-100.84469,-17.154112,0.006096212
1.8181818,1.5757576,-0.0026210174,-0.005759077,-11.169181,-103.048615,-17.282051,0.0063274563
1.8181818,1.6161616,-0.0026522167,-0.0060022324,-11.878013,-105.2443,-17.451324,0.006562092
1.8181818,1.6565657,-0.002679754,-0.006250037,-12.6350565,-107.434525,-17.667728,0.006800297
1.8181818,1.6969697,-0.0027034841,-0.0065023582,-13.439754,-109.62178,-17.935814,0.0070419805
1.8181818,1.7373737,-0.002723638,-0.006759193,-14.291464,-111.809586,-18.260471,0.00728731
1.8181818,1.7777778,-0.0027404204,-0.0070204884,-15.190534,-114.00215,-18.64652,0.0075363894
1.8181818,1.8181819,-0.0027540587,-0.007286139,-16.133924,-116.202965,-19.098194,0.007789266
1.8181818,1.8585858,-0.002764713,-0.0075562615,-17.121372,-118.41665,-19.619432,0.008046162
1.8181818,1.8989899,-0.002772674,-0.007830661,-18.150644,-120.64693,-20.21396,0.008307043
1.8181818,1.939394,-0.0027782172,-0.0081095025,-19.220232,-122.898575,-20.885118,0.008572195
1.8181818,1.979798,-0.002781611,-0.008392774,-20.32791,-125.176384,-21.635466,0.0088417195
1.8181818,2.020202,-0.0027832054,-0.0086805355,-21.472086,-127.48453,-22.467976,0.009115807
1.8181818,2.060606,-0.0027833916,-0.008972697,-22.651632,-129.82732,-23.384415,0.009394497
1.8181818,2.10101,-0.002782438,-0.009269394,-23.86445,-132.2091,-24.386322,0.009677997
1.8181818,2.1414142,-0.0027807467,-0.009570679,-25.107758,-134.63148,-25.474901,0.009966466
1.8181818,2.1818182,-0.0027785823,-0.009876661,-26.38301,-137.09976,-26.650692,0.010260066
1.8181818,2.2222223,-0.002776388,-0.01018744,-27.686956,-139.61484,-27.913698,0.010558989
1.8181818,2.2626262,-0.002774354,-0.010502998,-29.020672,-142.17929,-29.263233,0.010863241
1.8181818,2.3030303,-0.0027729794,-0.010823499,-30.38449,-144.79286,-30.699049,0.011173073
1.8181818,2.3434343,-0.002772361,-0.011148946,-31.779312,-147.45547,-32.218895,0.011488472
1.8181818,2.3838384,-0.002772808,-0.011479605,-33.20729,-150.16629,-33.820652,0.011809733
1.8181818,2.4242425,-0.0027745701,-0.011815399,-34.671555,-152.9219,-35.50201,0.012136799
1.8181818,2.4646466,-0.0027777143,-0.012156503,-36.174076,-155.7184,-37.25934,0.012469815
1.8181818,2.5050504,-0.0027823634,-0.0125028305,-37.723476,-158.55148,-39.088764,0.0128086815
1.8181818,2.5454545,-0.0027885474,-0.012854544,-39.323883,-161.41348,-40.98615,0.013153528
1.8181818,2.5858586,-0.002796162,-0.013211496,-40.98397,-164.29622,-42.94466,0.013504153
1.8181818,2.6262627,-0.002805069,-0.013573837,-42.7138,-167.19135,-44.959637,0.013860644
1.8181818,2.6666667,-0.0028149039,-0.013941346,-44.523907,-170.08737,-47.023094,0.014222686
1.8181818,2.7070708,-0.0028253905,-0.014314087,-46.428596,-172.97389,-49.127792,0.014590268
1.8181818,2.7474747,-0.0028360598,-0.014691744,-48.443905,-175.8377,-51.26497,0.014962973
1.8181818,2.7878788,-0.0028461441,-0.015074234,-50.584724,-178.66362,-53.42433,0.01534057
1.8181818,2.8282828,-0.0028551593,-0.015461247,-52.873165,-181.43918,-55.595947,0.015722662
1.8181818,2.868687,-0.0028618835,-0.015852544,-55.328526,-184.14836,-57.766483,0.016108803
1.8181818,2.909091,-0.0028654113,-0.016247634,-57.975533,-186.77637,-59.923733,0.016498368
1.8181818,2.9494948,-0.0028645732,-0.016646244,-60.83807,-189.30722,-62.05326,0.01689092
1.8181818,2.989899,-0.0028578043,-0.017047722,-63.944473,-191.72624,-64.13874,0.017285598
1.8181818,3.030303,-0.0028436705,-0.017451555,-67.32115,-194.0182,-66.162384,0.01768172
1.8181818,3.070707,-0.0028203204,-0.017857138,-70.996414,-196.16777,-68.10685,0.018078484
1.8181818,3.1111112,-0.0027858578,-0.018263862,-74.99968,-198.16168,-69.95154,0.018475108
1.8181818,3.1515152,-0.0027380176,-0.018670775,-79.35796,-199.98566,-71.67526,0.01887047
1.8181818,3.191919,-0.0026745796,-0.019077212,-84.097,-201.62656,-73.255585,0.019263783
1.8181818,3.2323232,-0.0025929995,-0.019482274,-89.24043,-203.07187,-74.66904,0.019654075
1.8181818,3.2727273,-0.0024905987,-0.01988494,-94.80831,-204.31,-75.891304,0.020040307
1.8181818,3.3131313,-0.002364345,-0.020284329,-100.81248,-205.32706,-76.89651,0.020421658
1.8181818,3.3535354,-0.002211254,-0.020679355,-107.26146,-206.11098,-77.660774,0.020797243
1.8181818,3.3939395,-0.002028022,-0.02106905,-114.14897,-206.6468,-78.158134,0.021166429
1.8181818,3.4343433,-0.0018111616,-0.021452226,-121.46659,-206.92062,-78.36321,0.021528546
1.8181818,3.4747474,-0.0015572608,-0.021827847,-129.18573,-206.91415,-78.25233,0.021883326
1.8181818,3.5151515,-0.0012626573,-0.022194777,-137.2697,-206.60698,-77.8035,0.022230664
1.8181818,3.5555556,-0.00092339143,-0.022551958,-145.66179,-205.9765,-76.99548,0.022570852
1.8181818,3.5959597,-0.0005357638,-0.022898182,-154.28993,-204.99449,-75.80945,0.022904448
1.8181818,3.6363637,-9.595603e-05,-0.0232324,-163.0639,-203.62828,-74.23139,0.023232598
1.8181818,3.6767676,0.00040007755,-0.02355348,-171.87302,-201.84116,-72.2488,0.023556877
1.8181818,3.7171717,0.0009562783,-0.023860458,-180.58159,-199.58719,-69.854225,0.023879612
1.8181818,3.7575758,0.0015761852,-0.024152197,-189.04362,-196.82007,-67.04373,0.024203572
1.8181818,3.7979798,0.0022636317,-0.024427824,-197.08452,-193.48169,-63.818916,0.02453248
1.8181818,3.838384,0.003022261,-0.024686348,-204.51054,-189.51018,-60.185913,0.024870662
1.8181818,3.878788,0.0038553476,-0.024926886,-211.11292,-184.83911,-56.156487,0.025223272
1.8181818,3.9191918,0.0047660805,-0.025148675,-216.66083,-179.39278,-51.747208,0.025596317
1.8181818,3.959596,0.0057574213,-0.025350865,-220.91585,-173.09581,-46.978912,0.025996428
1.8181818,4.0,0.006831888,-0.025532886,-223.6187,-165.86273,-41.87973,0.026431099
1.8686868,0.04040404,-0.0001443252,-0.00054263324,3.9126635,-10.375891,-4.8172736,0.0005614985
1.8686868,0.08080808,-0.00017672405,-0.00057495385,2.8313916,-13.141846,-5.5078654,0.0006015009
1.8686868,0.121212125,-0.00021331385,-0.000613017,1.8507694,-15.87544,-6.2015686,0.0006490706
1.8686868,0.16161616,-0.00025417283,-0.0006567035,0.96584475,-18.578506,-6.8935766,0.0007041756
1.8686868,0.2020202,-0.00029908493,-0.0007061586,0.17139329,-21.253868,-7.579861,0.0007668844
1.8686868,0.24242425,-0.00034788623,-0.000761278,-0.537419,-23.902933,-8.25609,0.00083699997
1.8686868,0.28282827,-0.00040066987,-0.0008221995,-1.1672304,-26.528658,-8.918181,0.0009146302
1.8686868,0.32323232,-0.000457,-0.00088885427,-1.7227724,-29.133162,-9.562235,0.0009994553
1.8686868,0.36363637,-0.0005168691,-0.0009613987,-2.210209,-31.718578,-10.184777,0.0010915316
1.8686868,0.4040404,-0.00057994574,-0.001039736,-2.6357458,-34.28748,-10.782179,0.001190541
1.8686868,0.44444445,-0.0006461032,-0.0011238866,-3.0055387,-36.84179,-11.351523,0.0012963681
1.8686868,0.4848485,-0.00071502477,-0.0012140479,-3.324568,-39.383553,-11.889929,0.0014089616
1.8686868,0.5252525,-0.0007864833,-0.0013100356,-3.6000426,-41.91485,-12.394995,0.0015279887
1.8686868,0.56565654,-0.0008601472,-0.0014119688,-3.8365726,-44.437035,-12.864755,0.0016533327
1.8686868,0.6060606,-0.00093571097,-0.0015198495,-4.040576,-46.951782,-13.297291,0.0017847962
1.8686868,0.64646465,-0.00101294,-0.0016336329,-4.2176,-49.460255,-13.691544,0.0019221873
1.8686868,0.68686867,-0.0010913871,-0.0017534755,-4.3731303,-51.963463,-14.046509,0.0020653817
1.8686868,0.72727275,-0.001170855,-0.0018792097,-4.5119996,-54.461792,-14.361942,0.0022141207
1.8686868,0.7676768,-0.0012509562,-0.002010949,-4.6397777,-56.95595,-14.637731,0.002368292
1.8686868,0.8080808,-0.0013313033,-0.002148658,-4.7611775,-59.446255,-14.874327,0.002527667
1.8686868,0.8484849,-0.0014115907,-0.0022923872,-4.8810763,-61.932865,-15.07279,0.0026921418
1.8686868,0.8888889,-0.0014915392,-0.0024420712,-5.003793,-64.415344,-15.234443,0.0028615382
1.8686868,0.9292929,-0.0015707314,-0.0025976188,-5.133986,-66.89284,-15.360912,0.0030355921
1.8686868,0.969697,-0.0016488321,-0.0027592033,-5.2758603,-69.36578,-15.454956,0.0032143195
1.8686868,1.010101,-0.0017256476,-0.002926562,-5.432722,-71.83221,-15.518416,0.0033974438
1.8686868,1.050505,-0.0018006526,-0.003099881,-5.6090784,-74.29266,-15.555084,0.0035849146
1.8686868,1.0909091,-0.0018738732,-0.0032789744,-5.807792,-76.74512,-15.5678215,0.0037766485
1.8686868,1.1313131,-0.0019447431,-0.003463909,-6.0329285,-79.189575,-15.56076,0.0039724917
1.8686868,1.1717172,-0.002013065,-0.0036545228,-6.286877,-81.62449,-15.537873,0.0041722856
1.8686868,1.2121212,-0.0020786524,-0.0038508177,-6.5738096,-84.0496,-15.503635,0.004376025
1.8686868,1.2525252,-0.0021413527,-0.0040526986,-6.89479,-86.46323,-15.462718,0.0045836405
1.8686868,1.2929293,-0.0022008494,-0.004260218,-7.2537513,-88.86608,-15.420061,0.004795122
1.8686868,1.3333334,-0.0022570603,-0.0044730846,-7.6519084,-91.25665,-15.3805485,0.00501027
1.8686868,1.3737373,-0.0023097396,-0.004691476,-8.09209,-93.636,-15.34968,0.0052292296
1.8686868,1.4141414,-0.0023588724,-0.0049151164,-8.575432,-96.002884,-15.332921,0.0054518483
1.8686868,1.4545455,-0.0024042726,-0.0051440727,-9.103946,-98.35919,-15.335517,0.005678205
1.8686868,1.4949495,-0.002445992,-0.005378194,-9.678478,-100.70419,-15.363201,0.0059082867
1.8686868,1.5353535,-0.0024839118,-0.0056174174,-10.299334,-103.039764,-15.421411,0.006142084
1.8686868,1.5757576,-0.0025180764,-0.0058616195,-10.968354,-105.367004,-15.515668,0.0063795997
1.8686868,1.6161616,-0.0025485493,-0.0061108787,-11.685545,-107.68879,-15.6514845,0.0066210227
1.8686868,1.6565657,-0.00257539,-0.006365003,-12.449752,-110.00562,-15.834246,0.006866287
1.8686868,1.6969697,-0.0025985576,-0.0066240393,-13.261353,-112.32162,-16.068811,0.0071155042
1.8686868,1.7373737,-0.0026184767,-0.00688779,-14.119765,-114.63899,-16.360416,0.0073687225
1.8686868,1.7777778,-0.0026350468,-0.0071563013,-15.0238695,-116.960846,-16.713419,0.007626016
1.8686868,1.8181819,-0.0026486292,-0.007429611,-15.9728,-119.29209,-17.132652,0.007887607
1.8686868,1.8585858,-0.0026592873,-0.007707551,-16.965023,-121.636024,-17.622038,0.008153413
1.8686868,1.8989899,-0.0026673824,-0.007990237,-17.9987,-123.996475,-18.185072,0.008423706
1.8686868,1.939394,-0.0026731528,-0.0082776435,-19.072306,-126.37897,-18.825432,0.008698571
1.8686868,1.979798,-0.0026768968,-0.008569701,-20.183062,-128.78662,-19.5459,0.0089780595
1.8686868,2.020202,-0.002678994,-0.008866603,-21.331291,-131.22684,-20.349401,0.009262486
1.8686868,2.060606,-0.0026795492,-0.009168308,-22.51228,-133.70177,-21.237411,0.009551851
1.8686868,2.10101,-0.002679184,-0.00947478,-23.726095,-136.21707,-22.21206,0.009846293
1.8686868,2.1414142,-0.0026778989,-0.009786243,-24.970522,-138.77715,-23.273504,0.010146018
1.8686868,2.1818182,-0.0026763491,-0.010102674,-26.244501,-141.38577,-24.423126,0.010451166
1.8686868,2.2222223,-0.0026747324,-0.010424245,-27.546822,-144.04704,-25.660873,0.010761927
1.8686868,2.2626262,-0.0026733838,-0.010750987,-28.876,-146.76305,-26.98614,0.011078388
1.8686868,2.3030303,-0.002672542,-0.011083087,-30.232702,-149.53659,-28.397808,0.011400758
1.8686868,2.3434343,-0.002672661,-0.011420611,-31.618158,-152.36972,-29.894632,0.0117291715
1.8686868,2.3838384,-0.0026738197,-0.011763694,-33.032234,-155.26129,-31.474453,0.012063739
1.8686868,2.4242425,-0.0026762225,-0.012112355,-34.476845,-158.21124,-33.13411,0.012404487
1.8686868,2.4646466,-0.0026801936,-0.012466896,-35.955944,-161.21767,-34.87147,0.012751742
1.8686868,2.5050504,-0.0026856624,-0.012827264,-37.472717,-164.27718,-36.681805,0.0131054
1.8686868,2.5454545,-0.002692759,-0.013193533,-39.03474,-167.38544,-38.561142,0.013465522
1.8686868,2.5858586,-0.0027014166,-0.013565846,-40.64616,-170.53613,-40.504757,0.013832203
1.8686868,2.6262627,-0.0027114712,-0.013944119,-42.31671,-173.72076,-42.506935,0.014205299
1.8686868,2.6666667,-0.0027227774,-0.014328536,-44.05611,-176.9315,-44.561474,0.014584939
1.8686868,2.7070708,-0.002734974,-0.014718978,-45.87727,-180.15863,-46.66149,0.014970918
1.8686868,2.7474747,-0.0027476512,-0.015115302,-47.79316,-183.38824,-48.799355,0.015363006
1.8686868,2.7878788,-0.0027602278,-0.015517559,-49.819664,-186.60938,-50.96656,0.015761139
1.8686868,2.8282828,-0.002772048,-0.015925363,-51.977985,-189.80817,-53.153084,0.01616482
1.8686868,2.868687,-0.0027822107,-0.016338758,-54.285645,-192.969,-55.349308,0.016573947
1.8686868,2.909091,-0.0027898885,-0.016757268,-56.76837,-196.07724,-57.54311,0.016987922
1.8686868,2.9494948,-0.0027938485,-0.017180607,-59.451763,-199.11746,-59.72196,0.017406289
1.8686868,2.989899,-0.0027928092,-0.017608333,-62.36449,-202.0739,-61.87175,0.017828437
1.8686868,3.030303,-0.0027853064,-0.018040065,-65.53667,-204.93102,-63.97812,0.018253816
1.8686868,3.070707,-0.0027696118,-0.01847513,-69.00132,-207.67421,-66.023186,0.018681573
1.8686868,3.1111112,-0.0027441122,-0.018912923,-72.79347,-210.28821,-67.989296,0.01911096
1.8686868,3.1515152,-0.0027065538,-0.019352805,-76.94712,-212.75954,-69.85695,0.019541148
1.8686868,3.191919,-0.00265472,-0.01979404,-81.49845,-215.07593,-71.60517,0.019971268
1.8686868,3.2323232,-0.0025863014,-0.020235643,-86.481995,-217.22362,-73.21098,0.02040025
1.8686868,3.2727273,-0.0024986416,-0.02067687,-91.93259,-219.19292,-74.65141,0.020827293
1.8686868,3.3131313,-0.0023888946,-0.021116786,-97.877815,-220.97269,-75.90109,0.021251481
1.8686868,3.3535354,-0.0022540092,-0.021554183,-104.34516,-222.55211,-76.934265,0.021671718
1.8686868,3.3939395,-0.0020908453,-0.021988213,-111.35446,-223.92242,-77.72451,0.022087397
1.8686868,3.4343433,-0.0018958822,-0.022417624,-118.913864,-225.07034,-78.24494,0.02249765
1.8686868,3.4747474,-0.0016656779,-0.022841364,-127.027824,-225.98564,-78.46917,0.022902017
1.8686868,3.5151515,-0.0013964437,-0.023258206,-135.68251,-226.65254,-78.37084,0.023300089
1.8686868,3.5555556,-0.0010843687,-0.02366703,-144.85391,-227.05618,-77.925644,0.02369186
1.8686868,3.5959597,-0.0007253513,-0.024066586,-154.49619,-227.173,-77.10957,0.024077514
1.8686868,3.6363637,-0.00031533465,-0.024455775,-164.55353,-226.98279,-75.90202,0.024457809
1.8686868,3.6767676,0.00014974922,-0.024833202,-174.94176,-226.452,-74.28531,0.024833653
1.8686868,3.7171717,0.00067410246,-0.02519792,-185.55872,-225.54619,-72.244644,0.025206935
1.8686868,3.7575758,0.001262065,-0.0255487,-196.27664,-224.22171,-69.76871,0.025579853
1.8686868,3.7979798,0.0019174553,-0.025884382,-206.94922,-222.43015,-66.852776,0.025955306
1.8686868,3.838384,0.002644509,-0.026203912,-217.40028,-220.11334,-63.4954,0.026337016
1.8686868,3.878788,0.003447283,-0.026506312,-227.43138,-217.2061,-59.701393,0.026729539
1.8686868,3.9191918,0.0043293275,-0.026790615,-236.82217,-213.6355,-55.480633,0.027138168
1.8686868,3.959596,0.0052941553,-0.027055833,-245.33067,-209.32127,-50.849655,0.027568936
1.8686868,4.0,0.0063451678,-0.027301058,-252.69493,-204.17705,-45.829884,0.028028715
1.9191918,0.04040404,-0.00011861697,-0.00054509565,3.8623013,-10.6541815,-4.356025,0.0005578524
1.9191918,0.08080808,-0.00015058368,-0.000578152,2.8128688,-13.442197,-4.9981117,0.0005974405
1.9191918,0.121212125,-0.00018659607,-0.0006169602,1.863767,-16.195398,-5.6438403,0.0006445603
1.9191918,0.16161616,-0.00022652,-0.00066145137,1.0100133,-18.916285,-6.2889967,0.00069916324
1.9191918,0.2020202,-0.00027026236,-0.000711767,0.2467003,-21.60705,-6.929442,0.0007613501
1.9191918,0.24242425,-0.00031779706,-0.00076792575,-0.43240762,-24.270376,-7.5609617,0.0008310866
1.9191918,0.28282827,-0.00036891922,-0.00082989037,-1.032978,-26.909023,-8.17961,0.0009081957
1.9191918,0.32323232,-0.00042346492,-0.00089769624,-1.5604746,-29.525425,-8.7817955,0.0009925629
1.9191918,0.36363637,-0.000481423,-0.00097137317,-2.021884,-32.1227,-9.363657,0.0010841282
1.9191918,0.4040404,-0.00054236874,-0.0010508597,-2.4223063,-34.70265,-9.921859,0.0011825692
1.9191918,0.44444445,-0.00060627237,-0.0011363961,-2.7688692,-37.26877,-10.453509,0.0012880071
1.9191918,0.4848485,-0.0006728284,-0.0012277886,-3.0670578,-39.822815,-10.955529,0.0014000582
1.9191918,0.5252525,-0.0007416792,-0.0013251863,-3.322775,-42.367157,-11.425684,0.0015186202
1.9191918,0.56565654,-0.00081275776,-0.0014284737,-3.5423229,-44.903896,-11.86172,0.0016435061
1.9191918,0.6060606,-0.00088562444,-0.0015378688,-3.7315521,-47.435104,-12.261956,0.0017746467
1.9191918,0.64646465,-0.00096010044,-0.0016532484,-3.8957698,-49.961933,-12.6251135,0.0019118115
1.9191918,0.68686867,-0.0010357238,-0.0017745905,-4.040887,-52.4859,-12.9498825,0.002054725
1.9191918,0.72727275,-0.0011122935,-0.0019020215,-4.1715183,-55.00812,-13.236328,0.0022033798
1.9191918,0.7676768,-0.001189474,-0.0020355117,-4.293427,-57.52946,-13.483752,0.0023575742
1.9191918,0.8080808,-0.0012669042,-0.0021750648,-4.4110103,-60.050766,-13.692871,0.0025171319
1.9191918,0.8484849,-0.0013442598,-0.0023206621,-4.529366,-62.57165,-13.864407,0.0026818851
1.9191918,0.8888889,-0.0014212988,-0.0024722796,-4.652453,-65.0929,-13.999476,0.0028517111
1.9191918,0.9292929,-0.0014975779,-0.0026299953,-4.784032,-67.61375,-14.100035,0.0030264854
1.9191918,0.969697,-0.0015728734,-0.0027937312,-4.9295964,-70.134636,-14.167907,0.003206067
1.9191918,1.010101,-0.0016468577,-0.0029634088,-5.091499,-72.65423,-14.205598,0.0033902703
1.9191918,1.050505,-0.001719214,-0.0031392202,-5.2735233,-75.17251,-14.21629,0.0035791618
1.9191918,1.0909091,-0.0017897077,-0.0033208467,-5.479555,-77.68843,-14.2030945,0.0037724099
1.9191918,1.1313131,-0.0018580407,-0.0035084672,-5.7123947,-80.20128,-14.169583,0.0039700954
1.9191918,1.1717172,-0.0019239597,-0.003701996,-5.9751616,-82.71027,-14.119869,0.0041720974
1.9191918,1.2121212,-0.0019872412,-0.0039014183,-6.2702107,-85.21463,-14.05848,0.004378378
1.9191918,1.2525252,-0.002047632,-0.004106596,-6.600473,-87.713524,-13.989714,0.004588783
1.9191918,1.2929293,-0.0021050163,-0.004317524,-6.9678197,-90.20645,-13.918591,0.004803343
1.9191918,1.3333334,-0.002159275,-0.004534159,-7.375235,-92.693146,-13.850125,0.005022058
1.9191918,1.3737373,-0.002210062,-0.004756402,-7.8232307,-95.1723,-13.789418,0.0052447817
1.9191918,1.4141414,-0.0022575408,-0.0049843043,-8.31422,-97.645035,-13.742176,0.0054717255
1.9191918,1.4545455,-0.0023014285,-0.0052176155,-8.849526,-100.11029,-13.713594,0.0057026385
1.9191918,1.4949495,-0.0023417547,-0.0054564215,-9.430513,-102.56955,-13.70957,0.0059377057
1.9191918,1.5353535,-0.00237846,-0.005700579,-10.056823,-105.022545,-13.735161,0.0061768657
1.9191918,1.5757576,-0.002411615,-0.005950153,-10.7303,-107.471436,-13.7964945,0.0064202966
1.9191918,1.6161616,-0.0024410859,-0.006204929,-11.450196,-109.91667,-13.898603,0.006667837
1.9191918,1.6565657,-0.0024671108,-0.0064649284,-12.216932,-112.36044,-14.046995,0.0069196774
1.9191918,1.6969697,-0.0024898127,-0.0067300703,-13.030118,-114.804886,-14.24707,0.0071758633
1.9191918,1.7373737,-0.0025091805,-0.0070003495,-13.889548,-117.25316,-14.503772,0.007436456
1.9191918,1.7777778,-0.0025253147,-0.0072757024,-14.793209,-119.70745,-14.821505,0.0077014975
1.9191918,1.8181819,-0.0025386624,-0.0075561088,-15.740791,-122.17104,-15.205406,0.007971172
1.9191918,1.8585858,-0.0025492422,-0.00784152,-16.730516,-124.64811,-15.659424,0.008245489
1.9191918,1.8989899,-0.0025572777,-0.008132009,-17.760746,-127.14303,-16.187168,0.008524626
1.9191918,1.939394,-0.00256316,-0.008427512,-18.830473,-129.65962,-16.79234,0.008808674
1.9191918,1.979798,-0.002567049,-0.008728096,-19.936739,-132.20268,-17.47767,0.009097769
1.9191918,2.020202,-0.0025693215,-0.009033794,-21.078629,-134.77794,-18.245895,0.009392062
1.9191918,2.060606,-0.002570156,-0.00934452,-22.253828,-137.38905,-19.098967,0.00969153
1.9191918,2.10101,-0.002570033,-0.009660576,-23.459534,-140.04189,-20.038403,0.009996589
1.9191918,2.1414142,-0.0025692172,-0.009981874,-24.694725,-142.74104,-21.065802,0.010307216
1.9191918,2.1818182,-0.002567973,-0.010308521,-25.959059,-145.49263,-22.180616,0.010623563
1.9191918,2.2222223,-0.0025667436,-0.010640601,-27.249008,-148.29926,-23.383913,0.010945801
1.9191918,2.2626262,-0.0025658123,-0.010978295,-28.565285,-151.16676,-24.674744,0.011274145
1.9191918,2.3030303,-0.0025653653,-0.0113216955,-29.906586,-154.09808,-26.051697,0.011608699
1.9191918,2.3434343,-0.0025658347,-0.01167094,-31.272654,-157.09552,-27.513737,0.011949658
1.9191918,2.3838384,-0.0025673993,-0.012026181,-32.66519,-160.16289,-29.058216,0.012297178
1.9191918,2.4242425,-0.0025702566,-0.012387531,-34.084427,-163.29964,-30.682795,0.012651369
1.9191918,2.4646466,-0.0025745854,-0.012755169,-35.53333,-166.50618,-32.38437,0.01301241
1.9191918,2.5050504,-0.0025804378,-0.013129178,-37.014965,-169.78209,-34.15922,0.013380358
1.9191918,2.5454545,-0.002588071,-0.013509775,-38.535313,-173.12459,-36.003162,0.01375544
1.9191918,2.5858586,-0.0025972463,-0.01389695,-40.097214,-176.5283,-37.911194,0.01413757
1.9191918,2.6262627,-0.0026079863,-0.014290959,-41.71054,-179.98962,-39.8791,0.014526978
1.9191918,2.6666667,-0.0026201382,-0.01469175,-43.382786,-183.50066,-41.90035,0.0149235595
1.9191918,2.7070708,-0.0026332922,-0.015099425,-45.12485,-187.05269,-43.96891,0.015327324
1.9191918,2.7474747,-0.0026472434,-0.015513964,-46.94988,-190.63614,-46.078358,0.0157382
1.9191918,2.7878788,-0.0026613586,-0.01593531,-48.873146,-194.23938,-48.22052,0.016156018
1.9191918,2.8282828,-0.0026751384,-0.016363494,-50.912178,-197.84987,-50.387592,0.016580721
1.9191918,2.868687,-0.002687741,-0.016798194,-53.087162,-201.45393,-52.570965,0.017011857
1.9191918,2.909091,-0.0026984103,-0.017239407,-55.421112,-205.03632,-54.760098,0.017449314
1.9191918,2.9494948,-0.0027059764,-0.017686829,-57.94075,-208.58307,-56.944588,0.01789263
1.9191918,2.989899,-0.0027093254,-0.018140122,-60.674793,-212.07758,-59.11183,0.018341333
1.9191918,3.030303,-0.0027070902,-0.01859888,-63.656925,-215.50507,-61.249943,0.018794859
1.9191918,3.070707,-0.0026978143,-0.01906272,-66.922455,-218.84975,-63.34362,0.019252675
1.9191918,3.1111112,-0.0026796497,-0.019530974,-70.51085,-222.09796,-65.37664,0.019713942
1.9191918,3.1515152,-0.0026508905,-0.020003144,-74.46267,-225.23457,-67.33261,0.020178031
1.9191918,3.191919,-0.0026092492,-0.020478502,-78.82289,-228.248,-69.19169,0.02064406
1.9191918,3.2323232,-0.0025525503,-0.02095621,-83.63582,-231.1258,-70.93358,0.021111093
1.9191918,3.2727273,-0.0024782605,-0.0214355,-88.947945,-233.85805,-72.53592,0.021578286
1.9191918,3.3131313,-0.0023837648,-0.021915466,-94.806404,-236.43674,-73.97514,0.022044726
1.9191918,3.3535354,-0.0022659823,-0.022395067,-101.25357,-238.85269,-75.22549,0.022509413
1.9191918,3.3939395,-0.002122052,-0.022873357,-108.33103,-241.10007,-76.26094,0.022971582
1.9191918,3.4343433,-0.0019484572,-0.02334904,-116.075356,-243.17203,-77.05402,0.023430197
1.9191918,3.4747474,-0.0017418079,-0.023821138,-124.51412,-245.06259,-77.57599,0.023884732
1.9191918,3.5151515,-0.0014983751,-0.02428843,-133.6666,-246.76404,-77.79873,0.024334606
1.9191918,3.5555556,-0.0012141652,-0.024749704,-143.54099,-248.26863,-77.6939,0.024779469
1.9191918,3.5959597,-0.00088525936,-0.025203515,-154.12724,-249.56293,-77.23307,0.025219059
1.9191918,3.6363637,-0.0005074702,-0.025648847,-165.40536,-250.63425,-76.39166,0.025653867
1.9191918,3.6767676,-7.629022e-05,-0.026084282,-177.3273,-251.46124,-75.143196,0.026084393
1.9191918,3.7171717,0.00041237846,-0.026508585,-189.83165,-252.02092,-73.467445,0.026511792
1.9191918,3.7575758,0.0009632297,-0.026920523,-202.82466,-252.27934,-71.34659,0.026937751
1.9191918,3.7979798,0.0015806146,-0.027318899,-216.19418,-252.19893,-68.766,0.027364586
1.9191918,3.838384,0.0022690743,-0.027702264,-229.7981,-251.73166,-65.71626,0.02779504
1.9191918,3.878788,0.003032986,-0.02806976,-243.46187,-250.8195,-62.19332,0.028233144
1.9191918,3.9191918,0.0038765483,-0.028420001,-256.99088,-249.39761,-58.19953,0.028683169
1.9191918,3.959596,0.00480422,-0.028752051,-270.15488,-247.38931,-53.742207,0.02915066
1.9191918,4.0,0.0058196336,-0.029064827,-282.70074,-244.70865,-48.836838,0.029641733
1.9696969,0.04040404,-9.2778355e-05,-0.000543816,3.760654,-10.9196205,-3.8700914,0.0005516735
1.9696969,0.08080808,-0.00012424216,-0.00057742186,2.7441657,-13.725924,-4.4638915,0.00059063704
1.9696969,0.121212125,-0.00015944615,-0.0006168932,1.8280684,-16.495188,-5.0620584,0.0006371658
1.9696969,0.16161616,-0.00019836053,-0.0006621443,1.006861,-19.230099,-5.6608596,0.0006912177
1.9696969,0.2020202,-0.00024080649,-0.0007132944,0.27570787,-21.933119,-6.2559705,0.00075284566
1.9696969,0.24242425,-0.00028685108,-0.00077026524,-0.37229955,-24.60768,-6.8435636,0.0008219441
1.9696969,0.28282827,-0.00033633038,-0.0008331761,-0.9423386,-27.255913,-7.4197536,0.000898499
1.9696969,0.32323232,-0.00038908795,-0.0009019077,-1.4404397,-29.881239,-7.9808116,0.000982256
1.9696969,0.36363637,-0.0004449673,-0.0009765979,-1.8736526,-32.4866,-8.523213,0.0010731912
1.9696969,0.4040404,-0.0005037263,-0.0010572653,-2.247411,-35.07488,-9.043636,0.001171132
1.9696969,0.44444445,-0.0005652718,-0.0011438541,-2.56884,-37.64936,-9.53894,0.0012759054
1.9696969,0.4848485,-0.00062929466,-0.0012364127,-2.8433793,-40.21177,-10.006248,0.0013873457
1.9696969,0.5252525,-0.0006956458,-0.0013350472,-3.0781448,-42.766163,-10.443352,0.001505415
1.9696969,0.56565654,-0.00076397136,-0.001439685,-3.2781787,-45.3135,-10.847749,0.0016298299
1.9696969,0.6060606,-0.00083411485,-0.0015502628,-3.4499574,-47.856556,-11.217716,0.0017604154
1.9696969,0.64646465,-0.0009056181,-0.0016670264,-3.598746,-50.397392,-11.551869,0.001897135
1.9696969,0.68686867,-0.0009783395,-0.001789771,-3.7309947,-52.93794,-11.849177,0.0020397129
1.9696969,0.72727275,-0.0010520183,-0.0019186847,-3.8510444,-55.479176,-12.108971,0.0021881713
1.9696969,0.7676768,-0.0011262149,-0.00205368,-3.9641516,-58.022026,-12.331048,0.002342213
1.9696969,0.8080808,-0.0012006499,-0.0021947958,-4.075148,-60.568398,-12.515457,0.002501737
1.9696969,0.8484849,-0.0012750812,-0.0023420528,-4.188488,-63.1179,-12.663124,0.002666654
1.9696969,0.8888889,-0.001349125,-0.002495464,-4.3089833,-65.671776,-12.77491,0.0028368079
1.9696969,0.9292929,-0.0014225431,-0.0026549678,-4.4396214,-68.2292,-12.8524,0.0030120562
1.9696969,0.969697,-0.0014948882,-0.0028205775,-4.5854115,-70.79096,-12.897677,0.0031922325
1.9696969,1.010101,-0.0015660189,-0.002992317,-4.7493186,-73.35646,-12.912813,0.0033773328
1.9696969,1.050505,-0.0016356297,-0.0031702258,-4.935161,-75.92566,-12.901007,0.003567298
1.9696969,1.0909091,-0.0017034598,-0.0033541769,-5.144789,-78.49698,-12.865067,0.0037619513
1.9696969,1.1313131,-0.0017691292,-0.0035442784,-5.382421,-81.07099,-12.808572,0.0039612786
1.9696969,1.1717172,-0.0018325672,-0.0037402604,-5.6506114,-83.64629,-12.735547,0.004165075
1.9696969,1.2121212,-0.00189339,-0.0039424077,-5.951262,-86.22237,-12.650071,0.0043735
1.9696969,1.2525252,-0.0019514784,-0.004150437,-6.2873006,-88.79851,-12.556709,0.0045863274
1.9696969,1.2929293,-0.0020066574,-0.004364522,-6.660177,-91.37424,-12.460167,0.0048037204
1.9696969,1.3333334,-0.00205886,-0.004584387,-7.0721097,-93.94847,-12.365494,0.005025486
1.9696969,1.3737373,-0.002107758,-0.004810216,-7.5250683,-96.52168,-12.277735,0.0052517443
1.9696969,1.4141414,-0.0021533594,-0.0050417557,-8.020095,-99.09238,-12.202165,0.005482359
1.9696969,1.4545455,-0.0021956079,-0.0052791573,-8.558367,-101.66173,-12.144593,0.005717534
1.9696969,1.4949495,-0.0022343807,-0.0055221636,-9.140825,-104.22861,-12.1100235,0.0059570754
1.9696969,1.5353535,-0.002269756,-0.005770806,-9.768823,-106.79483,-12.104744,0.0062011285
1.9696969,1.5757576,-0.0023016073,-0.006025141,-10.441756,-109.36039,-12.133618,0.0064497846
1.9696969,1.6161616,-0.0023300834,-0.006285023,-11.160238,-111.92615,-12.202673,0.006703044
1.9696969,1.6565657,-0.0023552328,-0.006550394,-11.924983,-114.49419,-12.316852,0.006960947
1.9696969,1.6969697,-0.0023770407,-0.006821206,-12.733729,-117.06507,-12.481535,0.0072235153
1.9696969,1.7373737,-0.0023956858,-0.007097576,-13.588182,-119.64304,-12.701976,0.0074909874
1.9696969,1.7777778,-0.0024113916,-0.007379217,-14.485121,-122.2286,-12.983009,0.0077632247
1.9696969,1.8181819,-0.002424214,-0.0076663103,-15.425687,-124.825935,-13.328847,0.008040468
1.9696969,1.8585858,-0.002434466,-0.007958759,-16.406488,-127.43784,-13.744293,0.008322768
1.9696969,1.8989899,-0.002442319,-0.008256571,-17.427074,-130.06819,-14.2330475,0.008610221
1.9696969,1.939394,-0.0024480633,-0.008559745,-18.485159,-132.72127,-14.798225,0.008902934
1.9696969,1.979798,-0.0024518631,-0.0088683795,-19.579586,-135.40184,-15.443136,0.009201075
1.9696969,2.020202,-0.0024541356,-0.009182397,-20.707481,-138.11421,-16.17038,0.009504694
1.9696969,2.060606,-0.0024550296,-0.009502012,-21.867964,-140.8644,-16.981947,0.009814042
1.9696969,2.10101,-0.002455078,-0.009827036,-23.058699,-143.65666,-17.879557,0.01012907
1.9696969,2.1414142,-0.0024543628,-0.010157792,-24.277454,-146.49702,-18.864183,0.010450101
1.9696969,2.1818182,-0.0024533048,-0.010494269,-25.5231,-149.39098,-19.936008,0.010777216
1.9696969,2.2222223,-0.0024522021,-0.010836607,-26.79359,-152.34343,-21.09521,0.011110596
1.9696969,2.2626262,-0.0024513341,-0.011184955,-28.088339,-155.3602,-22.340883,0.011450427
1.9696969,2.3030303,-0.0024510883,-0.011539282,-29.406424,-158.4451,-23.672262,0.011796731
1.9696969,2.3434343,-0.0024515912,-0.011899905,-30.747581,-161.60336,-25.08744,0.012149816
1.9696969,2.3838384,-0.0024532117,-0.012267007,-32.112076,-164.83876,-26.583836,0.012509904
1.9696969,2.4242425,-0.0024561808,-0.012640588,-33.50237,-168.15413,-28.158844,0.012877007
1.9696969,2.4646466,-0.0024605207,-0.013020996,-34.917446,-171.5509,-29.809498,0.013251434
1.9696969,2.5050504,-0.002466496,-0.013408305,-36.36199,-175.03047,-31.531849,0.013633277
1.9696969,2.5454545,-0.002474133,-0.013802718,-37.839493,-178.59245,-33.321735,0.014022709
1.9696969,2.5858586,-0.0024834536,-0.014204361,-39.355,-182.23509,-35.175068,0.014419827
1.9696969,2.6262627,-0.0024943016,-0.014613485,-40.91379,-185.95488,-37.086067,0.014824826
1.9696969,2.6666667,-0.002506651,-0.015030082,-42.525654,-189.74783,-39.049934,0.015237673
1.9696969,2.7070708,-0.0025202595,-0.015454359,-44.198853,-193.60692,-41.060684,0.01565851
1.9696969,2.7474747,-0.0025346652,-0.015886344,-45.94522,-197.52408,-43.111782,0.016087277
1.9696969,2.7878788,-0.0025496073,-0.016326137,-47.778664,-201.49042,-45.197407,0.01652402
1.9696969,2.8282828,-0.0025643967,-0.016773768,-49.71568,-205.49403,-47.310253,0.01696866
1.9696969,2.868687,-0.0025785528,-0.017229117,-51.777813,-209.5245,-49.441868,0.017421005
1.9696969,2.909091,-0.0025911517,-0.01769209,-53.986378,-213.56725,-51.58481,0.01788083
1.9696969,2.9494948,-0.0026011951,-0.018162638,-56.365437,-217.60751,-53.729332,0.01834796
1.9696969,2.989899,-0.0026077814,-0.018640343,-58.94699,-221.63063,-55.865696,0.018821873
1.9696969,3.030303,-0.0026095659,-0.019125171,-61.763287,-225.62181,-57.983433,0.019302383
1.9696969,3.070707,-0.0026051998,-0.019616544,-64.85462,-229.56671,-60.070236,0.019788781
1.9696969,3.1111112,-0.0025930814,-0.020114183,-68.26007,-233.44919,-62.11261,0.020280642
1.9696969,3.1515152,-0.002571486,-0.02061741,-72.028244,-237.25699,-64.09542,0.020777155
1.9696969,3.191919,-0.0025385134,-0.021125652,-76.2097,-240.97742,-66.00287,0.021277621
1.9696969,3.2323232,-0.0024920665,-0.021638408,-80.85642,-244.59846,-67.81689,0.021781439
1.9696969,3.2727273,-0.0024297945,-0.022154681,-86.02926,-248.11244,-69.517296,0.022287525
1.9696969,3.3131313,-0.0023491345,-0.0226737,-91.78604,-251.5109,-71.08267,0.022795068
1.9696969,3.3535354,-0.0022473857,-0.023194492,-98.18739,-254.78864,-72.48904,0.023303116
1.9696969,3.3939395,-0.0021215975,-0.023716107,-105.29684,-257.9425,-73.71092,0.023810815
1.9696969,3.4343433,-0.0019686595,-0.024237394,-113.17369,-260.97006,-74.722336,0.024317214
1.9696969,3.4747474,-0.001785133,-0.024757296,-121.874176,-263.87195,-75.492645,0.024821572
1.9696969,3.5151515,-0.0015673228,-0.025274564,-131.44814,-266.64667,-75.99341,0.025323113
1.9696969,3.5555556,-0.001311753,-0.025787868,-141.93884,-269.29495,-76.19369,0.025821209
1.9696969,3.5959597,-0.0010141246,-0.02629608,-153.37877,-271.8154,-76.06261,0.026315628
1.9696969,3.6363637,-0.0006702468,-0.026797771,-165.78168,-274.20438,-75.56915,0.026806151
1.9696969,3.6767676,-0.0002759695,-0.027291555,-179.15117,-276.45535,-74.6838,0.02729295
1.9696969,3.7171717,0.0001733303,-0.027776185,-193.46512,-278.5574,-73.37795,0.027776726
1.9696969,3.7575758,0.0006823726,-0.02825028,-208.68126,-280.49344,-71.62538,0.028258521
1.9696969,3.7979798,0.0012558512,-0.028712396,-224.72795,-282.2373,-69.4045,0.028739847
1.9696969,3.838384,0.0018983334,-0.029161267,-241.51021,-283.758,-66.69574,0.02922299
1.9696969,3.878788,0.0026149638,-0.029595636,-258.89636,-285.01065,-63.485863,0.029710935
1.9696969,3.9191918,0.0034102239,-0.030014127,-276.72827,-285.94412,-59.766064,0.030207241
1.9696969,3.959596,0.0042889975,-0.030415617,-294.8057,-286.49112,-55.534374,0.030716531
1.9696969,4.0,0.0052558295,-0.030798826,-312.9055,-286.57693,-50.795624,0.031244062
2.020202,0.04040404,-6.688759e-05,-0.0005387496,3.613176,-11.169207,-3.365318,0.0005428859
2.020202,0.08080808,-9.7785145e-05,-0.00057287887,2.6305063,-13.990323,-3.911078,0.0005811645
2.020202,0.121212125,-0.00013216212,-0.0006128475,1.7480617,-16.772463,-4.462371,0.0006269361
2.020202,0.16161616,-0.00016992167,-0.00065876544,0.96073115,-19.518305,-5.015126,0.0006803273
2.020202,0.2020202,-0.00021101162,-0.00071057305,0.26215276,-22.230946,-5.565705,0.0007412422
2.020202,0.24242425,-0.00025553256,-0.00076830015,-0.35281986,-24.913298,-6.1102033,0.0008096802
2.020202,0.28282827,-0.00030313805,-0.0008319989,-0.89110106,-27.568724,-6.6447835,0.0008855026
2.020202,0.32323232,-0.00035389513,-0.00090160035,-1.3586171,-30.200375,-7.1659136,0.0009685685
2.020202,0.36363637,-0.00040761754,-0.000977248,-1.7621791,-32.811653,-7.6699896,0.0010588511
2.020202,0.4040404,-0.0004640706,-0.0010587685,-2.1077397,-35.405346,-8.153825,0.0011560069
2.020202,0.44444445,-0.00052319095,-0.0011463035,-2.4021003,-37.98485,-8.614312,0.0012600557
2.020202,0.4848485,-0.0005847104,-0.0012399405,-2.6516314,-40.5536,-9.048715,0.0013708897
2.020202,0.5252525,-0.0006483458,-0.0013395865,-2.8624132,-43.114235,-9.454365,0.0014882352
2.020202,0.56565654,-0.0007139072,-0.0014453363,-3.0410626,-45.669197,-9.829001,0.0016120361
2.020202,0.6060606,-0.0007811114,-0.0015571099,-3.1926723,-48.221024,-10.170876,0.0017420466
2.020202,0.64646465,-0.0008498505,-0.0016750023,-3.3241937,-50.772247,-10.4784565,0.0018782648
2.020202,0.68686867,-0.00091954693,-0.0017990265,-3.4403834,-53.32499,-10.75035,0.0020204117
2.020202,0.72727275,-0.0009902939,-0.0019291714,-3.54666,-55.880875,-10.98615,0.0021684982
2.020202,0.7676768,-0.0010614432,-0.002065489,-3.6480787,-58.441166,-11.185223,0.0023222633
2.020202,0.8080808,-0.001132857,-0.0022080187,-3.7493181,-61.007385,-11.347845,0.0024816752
2.020202,0.8484849,-0.0012042224,-0.0023567062,-3.8547754,-63.5802,-11.474382,0.002646548
2.020202,0.8888889,-0.0012752488,-0.0025116224,-3.9691901,-66.16077,-11.565904,0.0028168256
2.020202,0.9292929,-0.0013456382,-0.002672743,-4.0959263,-68.749275,-11.62361,0.0029923732
2.020202,0.969697,-0.0014151223,-0.0028400682,-4.2388587,-71.34572,-11.649438,0.0031730991
2.020202,1.010101,-0.0014833584,-0.0030135717,-4.401322,-73.9503,-11.645311,0.003358864
2.020202,1.050505,-0.001550138,-0.0031933114,-4.586308,-76.56268,-11.614169,0.003549671
2.020202,1.0909091,-0.0016151518,-0.0033792984,-4.7968297,-79.1828,-11.558733,0.003745447
2.020202,1.1313131,-0.001678165,-0.0035713743,-5.0359282,-81.81012,-11.482773,0.003946005
2.020202,1.1717172,-0.0017389469,-0.003769718,-5.3053956,-84.44394,-11.389688,0.004151471
2.020202,1.2121212,-0.0017972887,-0.0039742365,-5.6081543,-87.08396,-11.283554,0.004361743
2.020202,1.2525252,-0.0018529892,-0.004184887,-5.946047,-89.72946,-11.168542,0.0045767725
2.020202,1.2929293,-0.0019059591,-0.004401598,-6.321214,-92.37967,-11.049619,0.004796535
2.020202,1.3333334,-0.001955904,-0.0046244655,-6.734765,-95.03443,-10.93171,0.0050210794
2.020202,1.3737373,-0.002002813,-0.0048533957,-7.188254,-97.69269,-10.819528,0.005250401
2.020202,1.4141414,-0.002046477,-0.005088279,-7.683421,-100.35493,-10.718498,0.005484401
2.020202,1.4545455,-0.0020869784,-0.0053291786,-8.220504,-103.0198,-10.633884,0.005723253
2.020202,1.4949495,-0.0021240935,-0.0055760387,-8.801116,-105.68872,-10.571304,0.0059669074
2.020202,1.5353535,-0.0021579154,-0.005828779,-9.425228,-108.36058,-10.536162,0.006215405
2.020202,1.5757576,-0.002188392,-0.0060874484,-10.094051,-111.037636,-10.534069,0.0064688553
2.020202,1.6161616,-0.0022155792,-0.006351961,-10.806174,-113.7183,-10.570174,0.0067272726
2.020202,1.6565657,-0.0022395775,-0.006622227,-11.563322,-116.40532,-10.650188,0.006990679
2.020202,1.6969697,-0.002260372,-0.006898273,-12.363585,-119.099976,-10.779461,0.007259163
2.020202,1.7373737,-0.0022781678,-0.007180106,-13.206678,-121.80299,-10.962729,0.007532859
2.020202,1.7777778,-0.002293177,-0.007467648,-14.092914,-124.517876,-11.205177,0.007811813
2.020202,1.8181819,-0.0023053773,-0.007760944,-15.019336,-127.24653,-11.511292,0.008096111
2.020202,1.8585858,-0.0023150519,-0.008059887,-15.9859915,-129.99202,-11.88522,0.008385777
2.020202,1.8989899,-0.0023224838,-0.008364629,-16.9901,-132.7574,-12.331276,0.008681068
2.020202,1.939394,-0.002327878,-0.0086750835,-18.031336,-135.54747,-12.852443,0.008981987
2.020202,1.979798,-0.0023314022,-0.008991275,-19.107176,-138.36533,-13.452028,0.00928862
2.020202,2.020202,-0.0023334175,-0.009313218,-20.215435,-141.21616,-14.132647,0.009601087
2.020202,2.060606,-0.0023342185,-0.009641074,-21.355215,-144.10495,-14.896463,0.009919621
2.020202,2.10101,-0.0023340322,-0.009974822,-22.522873,-147.03712,-15.744766,0.010244257
2.020202,2.1414142,-0.0023331381,-0.010314647,-23.71859,-150.01822,-16.678564,0.01057523
2.020202,2.1818182,-0.0023319982,-0.01066043,-24.939747,-153.05382,-17.6982,0.010912515
2.020202,2.2222223,-0.0023307651,-0.011012593,-26.184427,-156.15042,-18.80399,0.011256539
2.020202,2.2626262,-0.0023298152,-0.011371037,-27.453012,-159.3137,-19.994633,0.011607261
2.020202,2.3030303,-0.0023294091,-0.011735974,-28.742434,-162.54852,-21.268784,0.011964916
2.020202,2.3434343,-0.0023298115,-0.0121075325,-30.054749,-165.86205,-22.62475,0.012329654
2.020202,2.3838384,-0.002331216,-0.012485981,-31.387981,-169.25752,-24.059797,0.012701743
2.020202,2.4242425,-0.0023337863,-0.012871496,-32.744217,-172.74161,-25.571274,0.01308136
2.020202,2.4646466,-0.0023379438,-0.013264086,-34.125237,-176.31673,-27.155722,0.013468554
2.020202,2.5050504,-0.0023435578,-0.013664184,-35.533108,-179.98668,-28.808855,0.0138637
2.020202,2.5454545,-0.0023508482,-0.014071882,-36.970253,-183.75162,-30.527199,0.014266896
2.020202,2.5858586,-0.0023597553,-0.014487414,-38.442364,-187.61464,-32.304813,0.014678338
2.020202,2.6262627,-0.0023703277,-0.014910966,-39.954273,-191.57372,-34.13779,0.015098191
2.020202,2.6666667,-0.0023823343,-0.015342664,-41.513702,-195.62561,-36.020317,0.015526521
2.020202,2.7070708,-0.0023956783,-0.015782725,-43.12958,-199.76765,-37.947235,0.015963512
2.020202,2.7474747,-0.0024101175,-0.016231418,-44.81352,-203.99544,-39.912598,0.016409375
2.020202,2.7878788,-0.002425041,-0.01668873,-46.575916,-208.29955,-41.91044,0.016864002
2.020202,2.8282828,-0.0024401993,-0.017154776,-48.43542,-212.67313,-43.934036,0.017327461
2.020202,2.868687,-0.0024549551,-0.017629575,-50.408283,-217.10347,-45.976864,0.017799683
2.020202,2.909091,-0.0024685115,-0.018113151,-52.516495,-221.58089,-48.032196,0.018280586
2.020202,2.9494948,-0.002480086,-0.01860546,-54.787365,-226.09283,-50.092575,0.018770028
2.020202,2.989899,-0.0024887435,-0.019106384,-57.24853,-230.62411,-52.149284,0.01926779
2.020202,3.030303,-0.0024933182,-0.019615743,-59.935295,-235.16205,-54.19453,0.019773569
2.020202,3.070707,-0.0024926998,-0.020133179,-62.88579,-239.6911,-56.218494,0.020286903
2.020202,3.1111112,-0.0024852417,-0.020658527,-66.144394,-244.19753,-58.209938,0.020807479
2.020202,3.1515152,-0.0024695136,-0.021191217,-69.76022,-248.66798,-60.15756,0.021334624
2.020202,3.191919,-0.0024437644,-0.021730844,-73.78976,-253.09084,-62.047535,0.021867821
2.020202,3.2323232,-0.0024060868,-0.022276744,-78.29298,-257.4546,-63.86535,0.022406306
2.020202,3.2727273,-0.0023543313,-0.022828206,-83.33894,-261.75217,-65.59451,0.02294929
2.020202,3.3131313,-0.0022861212,-0.023384549,-88.9963,-265.97543,-67.21569,0.02349603
2.020202,3.3535354,-0.0021990575,-0.02394487,-95.34384,-270.12344,-68.7084,0.024045637
2.020202,3.3939395,-0.0020903386,-0.024508115,-102.461006,-274.1941,-70.049576,0.024597099
2.020202,3.4343433,-0.0019570775,-0.025073387,-110.431,-278.19095,-71.213104,0.025149649
2.020202,3.4747474,-0.0017960034,-0.025639549,-119.33598,-282.11774,-72.171974,0.025702376
2.020202,3.5151515,-0.0016038604,-0.026205294,-129.25813,-285.98187,-72.89717,0.02625433
2.020202,3.5555556,-0.001376845,-0.026769504,-140.27429,-289.7914,-73.355835,0.026804889
2.020202,3.5959597,-0.0011113286,-0.027330823,-152.4573,-293.55667,-73.516266,0.027353408
2.020202,3.6363637,-0.0008031316,-0.027887836,-165.86732,-297.28568,-73.34375,0.027899398
2.020202,3.6767676,-0.00044785812,-0.028439224,-180.55128,-300.98553,-72.80373,0.02844275
2.020202,3.7171717,-4.1205436e-05,-0.02898357,-196.54387,-304.66302,-71.86365,0.0289836
2.020202,3.7575758,0.00042159483,-0.02951939,-213.85408,-308.31644,-70.48916,0.029522402
2.020202,3.7979798,0.00094535574,-0.030045263,-232.46742,-311.93973,-68.64944,0.030060133
2.020202,3.838384,0.0015351586,-0.030559737,-252.34094,-315.5186,-66.315414,0.030598272
2.020202,3.878788,0.0021958388,-0.031061389,-273.4042,-319.03165,-63.46456,0.031138906
2.020202,3.9191918,0.0029327087,-0.031548835,-295.5489,-322.44318,-60.075214,0.03168485
2.020202,3.959596,0.0037509128,-0.032020785,-318.62772,-325.7065,-56.134335,0.032239728
2.020202,4.0,0.00465557,-0.03247573,-342.45935,-328.76178,-51.63334,0.032807734
2.070707,0.04040404,-4.1365623e-05,-0.0005298853,3.425004,-11.400787,-2.8474965,0.0005314974
2.070707,0.08080808,-7.141009e-05,-0.000564415,2.476876,-14.233489,-3.3456717,0.0005689145
2.070707,0.121212125,-0.000104699284,-0.00060489215,1.6290526,-17.025629,-3.850406,0.00061388634
2.070707,0.16161616,-0.00014125556,-0.0006513335,0.8758728,-19.779661,-4.3580794,0.00066647463
2.070707,0.2020202,-0.00018090382,-0.0007036999,0.21139203,-22.499212,-4.864808,0.00072658085
2.070707,0.24242425,-0.00022371486,-0.000762105,-0.37032244,-25.18747,-5.367008,0.00079426216
2.070707,0.28282827,-0.00026952475,-0.0008264221,-0.8757838,-27.84756,-5.861042,0.0008692624
2.070707,0.32323232,-0.00031812862,-0.0008967314,-1.3111666,-30.483217,-6.343199,0.00095148984
2.070707,0.36363637,-0.00036960095,-0.00097309053,-1.6836106,-33.097874,-6.810182,0.0010409178
2.070707,0.4040404,-0.00042370334,-0.0010554511,-1.999131,-35.694687,-7.2588425,0.001137322
2.070707,0.44444445,-0.00048025325,-0.0011438802,-2.2649724,-38.277676,-7.685994,0.0012406068
2.070707,0.4848485,-0.00053908676,-0.0012383331,-2.4874053,-40.849827,-8.088648,0.0013505863
2.070707,0.5252525,-0.0005999729,-0.0013388935,-2.672769,-43.414337,-8.46464,0.0014671753
2.070707,0.56565654,-0.00066270307,-0.0014455691,-2.8269846,-45.97401,-8.811396,0.0015902345
2.070707,0.6060606,-0.00072703883,-0.0015583932,-2.9565635,-48.5319,-9.127116,0.001719644
2.070707,0.64646465,-0.0007927455,-0.0016773194,-3.0677834,-51.090755,-9.41001,0.0018552212
2.070707,0.68686867,-0.0008594468,-0.0018024351,-3.165112,-53.6523,-9.658913,0.001996853
2.070707,0.72727275,-0.00092700496,-0.0019336715,-3.2548177,-56.21926,-9.873044,0.0021443935
2.070707,0.7676768,-0.0009951256,-0.002071226,-3.3414123,-58.792904,-10.051691,0.00229788
2.070707,0.8080808,-0.0010634512,-0.0022149049,-3.430146,-61.37506,-10.194839,0.002456976
2.070707,0.8484849,-0.0011317097,-0.0023648962,-3.5243754,-63.966827,-10.303138,0.0026217364
2.070707,0.8888889,-0.0011997335,-0.002521079,-3.6292868,-66.56901,-10.376989,0.0027919884
2.070707,0.9292929,-0.0012670271,-0.0026836246,-3.748195,-69.18288,-10.417682,0.0029676927
2.070707,0.969697,-0.0013335608,-0.0028523784,-3.8845756,-71.80817,-10.427051,0.0031487213
2.070707,1.010101,-0.0013988353,-0.0030274726,-4.041535,-74.445694,-10.406839,0.0033350158
2.070707,1.050505,-0.001462739,-0.003208898,-4.223045,-77.09568,-10.359568,0.003526561
2.070707,1.0909091,-0.0015248954,-0.0033965353,-4.430497,-79.75742,-10.287894,0.0037231382
2.070707,1.1313131,-0.0015851595,-0.003590541,-4.667266,-82.43111,-10.19531,0.0039248844
2.070707,1.1717172,-0.001643341,-0.0037908778,-4.935393,-85.1165,-10.085264,0.0041317455
2.070707,1.2121212,-0.0016990267,-0.00399743,-5.2361374,-87.81224,-9.961454,0.004343517
2.070707,1.2525252,-0.001752343,-0.004210308,-5.5724077,-90.518936,-9.828309,0.0045604166
2.070707,1.2929293,-0.0018028617,-0.004429465,-5.945211,-93.23593,-9.690136,0.0047823084
2.070707,1.3333334,-0.0018505119,-0.004654946,-6.356337,-95.962456,-9.551595,0.005009283
2.070707,1.3737373,-0.0018953197,-0.004886577,-6.8072233,-98.69825,-9.417595,0.005241266
2.070707,1.4141414,-0.0019369461,-0.005124457,-7.2979474,-101.442696,-9.293543,0.0054783043
2.070707,1.4545455,-0.001975458,-0.005368544,-7.83035,-104.19599,-9.184309,0.005720463
2.070707,1.4949495,-0.0020108,-0.005618792,-8.404728,-106.95823,-9.095273,0.005967758
2.070707,1.5353535,-0.0020429865,-0.005875146,-9.021024,-109.728325,-9.032159,0.0062202197
2.070707,1.5757576,-0.002071876,-0.0061377417,-9.680544,-112.50803,-9.000042,0.0064780046
2.070707,1.6161616,-0.0020976774,-0.0064063873,-10.38318,-115.297966,-9.004617,0.006741072
2.070707,1.6565657,-0.0021203123,-0.0066811703,-11.127967,-118.0976,-9.050976,0.0070095477
2.070707,1.6969697,-0.002140019,-0.006962007,-11.914851,-120.908775,-9.14452,0.0072834897
2.070707,1.7373737,-0.002156783,-0.007248856,-12.743377,-123.73294,-9.290306,0.007562911
2.070707,1.7777778,-0.0021706931,-0.007541809,-13.611864,-126.571465,-9.492618,0.00784798
2.070707,1.8181819,-0.0021820664,-0.007840754,-14.520052,-129.42722,-9.757022,0.0081387255
2.070707,1.8585858,-0.0021910593,-0.008145785,-15.467503,-132.30298,-10.087146,0.008435316
2.070707,1.8989899,-0.002197802,-0.008456841,-16.450644,-135.2003,-10.487236,0.008737762
2.070707,1.939394,-0.0022026151,-0.008774048,-17.469137,-138.12381,-10.960364,0.009046294
2.070707,1.979798,-0.002205547,-0.009097328,-18.521013,-141.0773,-11.509855,0.009360867
2.070707,2.020202,-0.0022071227,-0.009426741,-19.60496,-144.06465,-12.138478,0.009681676
2.070707,2.060606,-0.0022074804,-0.009762447,-20.718311,-147.09099,-12.8480015,0.010008913
2.070707,2.10101,-0.0022068657,-0.010104375,-21.858967,-150.1608,-13.639909,0.010342564
2.070707,2.1414142,-0.0022056848,-0.010452632,-23.026796,-153.28087,-14.515318,0.010682816
2.070707,2.1818182,-0.0022041686,-0.010807458,-24.218786,-156.45598,-15.474638,0.011029937
2.070707,2.2222223,-0.0022024773,-0.011168826,-25.434008,-159.69334,-16.517126,0.011383918
2.070707,2.2626262,-0.002201125,-0.011536939,-26.671202,-162.99832,-17.64214,0.011745038
2.070707,2.3030303,-0.0022002198,-0.011911951,-27.930159,-166.37837,-18.847967,0.0121134445
2.070707,2.3434343,-0.0022000931,-0.012293946,-29.20943,-169.83864,-20.132826,0.0124892555
2.070707,2.3838384,-0.002201017,-0.012683269,-30.511559,-173.38742,-21.493671,0.012872831
2.070707,2.4242425,-0.0022031255,-0.013079926,-31.83438,-177.02873,-22.927664,0.013264172
2.070707,2.4646466,-0.0022066273,-0.01348426,-33.181408,-180.76912,-24.430616,0.013663618
2.070707,2.5050504,-0.0022115447,-0.013896497,-34.55391,-184.61302,-25.998407,0.014071374
2.070707,2.5454545,-0.0022181682,-0.014316749,-35.956486,-188.56451,-27.626785,0.0144875655
2.070707,2.5858586,-0.0022263192,-0.014745377,-37.39148,-192.62663,-29.310421,0.0149125
2.070707,2.6262627,-0.0022360757,-0.015182599,-38.865448,-196.8014,-31.044733,0.01534638
2.070707,2.6666667,-0.0022473522,-0.015628617,-40.384396,-201.08769,-32.823452,0.015789371
2.070707,2.7070708,-0.0022599064,-0.016083632,-41.9579,-205.48662,-34.642,0.016241625
2.070707,2.7474747,-0.0022736415,-0.016547896,-43.595116,-209.99347,-36.4944,0.016703362
2.070707,2.7878788,-0.0022881702,-0.017021496,-45.30939,-214.60468,-38.374577,0.017174603
2.070707,2.8282828,-0.0023028888,-0.017504822,-47.113766,-219.31378,-40.27675,0.017655654
2.070707,2.868687,-0.0023174994,-0.017997786,-49.027626,-224.11394,-42.195324,0.018146379
2.070707,2.909091,-0.0023313276,-0.018500496,-51.071365,-228.9942,-44.124428,0.018646808
2.070707,2.9494948,-0.0023434944,-0.0190131,-53.268055,-233.94405,-46.057255,0.019156981
2.070707,2.989899,-0.0023533143,-0.019535456,-55.64953,-238.95274,-47.98845,0.019676689
2.070707,3.030303,-0.002359677,-0.020067506,-58.24665,-244.00557,-49.91058,0.020205764
2.070707,3.070707,-0.0023615211,-0.020609304,-61.100178,-249.09174,-51.816555,0.020744162
2.070707,3.1111112,-0.0023577102,-0.021160275,-64.2543,-254.19557,-53.698853,0.021291219
2.070707,3.1515152,-0.0023465268,-0.021720305,-67.76214,-259.30627,-55.548306,0.02184669
2.070707,3.191919,-0.002326697,-0.022288918,-71.67988,-264.4102,-57.35464,0.02241003
2.070707,3.2323232,-0.0022964366,-0.022865739,-76.07471,-269.4992,-59.107258,0.022980766
2.070707,3.2727273,-0.0022537746,-0.02345007,-81.02173,-274.56558,-60.792892,0.023558125
2.070707,3.3131313,-0.0021966882,-0.024041317,-86.600365,-279.60312,-62.396454,0.024141466
2.070707,3.3535354,-0.002123002,-0.024638545,-92.89921,-284.60995,-63.9005,0.02472984
2.070707,3.3939395,-0.0020301305,-0.025241088,-100.01583,-289.5899,-65.28641,0.025322597
2.070707,3.4343433,-0.0019155592,-0.025847733,-108.05249,-294.54636,-66.5309,0.025918616
2.070707,3.4747474,-0.0017761849,-0.026457638,-117.11372,-299.48996,-67.609634,0.026517192
2.070707,3.5151515,-0.0016090684,-0.02706949,-127.312706,-304.43332,-68.49421,0.027117271
2.070707,3.5555556,-0.0014108121,-0.027682178,-138.76044,-309.39438,-69.15493,0.027718106
2.070707,3.5959597,-0.0011777803,-0.028294273,-151.56621,-314.39078,-69.557816,0.028318776
2.070707,3.6363637,-0.00090624765,-0.028904527,-165.8406,-319.4474,-69.66843,0.028918732
2.070707,3.6767676,-0.00059202686,-0.02951143,-181.67487,-324.5816,-69.44873,0.029517366
2.070707,3.7171717,-0.00023084506,-0.03011353,-199.16032,-329.81854,-68.861145,0.030114414
2.070707,3.7575758,0.00018192828,-0.030709408,-218.36444,-335.17578,-67.86582,0.030709948
2.070707,3.7979798,0.00065087527,-0.03129735,-239.33847,-340.66852,-66.42467,0.031304114
2.070707,3.838384,0.0011813454,-0.031876132,-262.10287,-346.3057,-64.49962,0.031898014
2.070707,3.878788,0.0017782301,-0.03244392,-286.6568,-352.08884,-62.055893,0.03249261
2.070707,3.9191918,0.0024469756,-0.03299936,-312.95645,-358.00748,-59.06121,0.033089958
2.070707,3.959596,0.003193006,-0.03354097,-340.92502,-364.04004,-55.488815,0.033692613
2.070707,4.0,0.0040219165,-0.03406726,-370.44217,-370.15088,-51.31712,0.034303848
2.121212,0.04040404,-1.6052276e-05,-0.0005173236,3.2024512,-11.612193,-2.3220162,0.0005175726
2.121212,0.08080808,-4.5280904e-05,-0.00055220537,2.2892132,-14.45386,-2.773232,0.0005540588
2.121212,0.121212125,-7.749349e-05,-0.00059298426,1.4763659,-17.253162,-3.2320888,0.0005980264
2.121212,0.16161616,-0.00011260435,-0.0006399043,0.7582466,-20.013111,-3.6952589,0.0006497363
2.121212,0.2020202,-0.00015067309,-0.0006927401,0.1281615,-22.737432,-4.158912,0.00070893666
2.121212,0.24242425,-0.00019169971,-0.00075159594,-0.41936547,-25.42912,-4.619695,0.00077565794
2.121212,0.28282827,-0.00023544952,-0.0008165259,-0.89102805,-28.092207,-5.0740523,0.0008497947
2.121212,0.32323232,-0.00028191134,-0.000887461,-1.2933501,-30.72971,-5.51843,0.00093116116
2.121212,0.36363637,-0.00033104792,-0.00096445717,-1.6336366,-33.346058,-5.949471,0.0010196913
2.121212,0.4040404,-0.0003826879,-0.0010475088,-1.9181378,-35.94452,-6.3641467,0.0011152241
2.121212,0.44444445,-0.0004365705,-0.001136627,-2.1538417,-38.528973,-6.759238,0.0012175856
2.121212,0.4848485,-0.0004926808,-0.0012318715,-2.3470705,-41.102608,-7.1320233,0.0013267411
2.121212,0.5252525,-0.00055069104,-0.001333205,-2.5044613,-43.669003,-7.4798207,0.0014424619
2.121212,0.56565654,-0.0006105788,-0.0014406927,-2.6329753,-46.231544,-7.8003173,0.001564737
2.121212,0.6060606,-0.0006718971,-0.0015543327,-2.7380817,-48.793186,-8.091549,0.0016933386
2.121212,0.64646465,-0.00073449686,-0.001674179,-2.8259976,-51.356815,-8.351788,0.0018282125
2.121212,0.68686867,-0.00079813227,-0.0018001795,-2.9023044,-53.924583,-8.579619,0.001969178
2.121212,0.72727275,-0.00086252764,-0.0019324105,-2.9721184,-56.49962,-8.774021,0.0021161675
2.121212,0.7676768,-0.0009275265,-0.0020709,-3.0414536,-59.083557,-8.934542,0.002269126
2.121212,0.8080808,-0.0009926669,-0.0022156462,-3.1132727,-61.677803,-9.060585,0.002427854
2.121212,0.8484849,-0.0010578372,-0.0023667365,-3.1933239,-64.284515,-9.153007,0.0025923853
2.121212,0.8888889,-0.0011227541,-0.0025241189,-3.2853768,-66.90434,-9.211845,0.0027625628
2.121212,0.9292929,-0.0011869073,-0.0026878286,-3.3929582,-69.538895,-9.238209,0.0029382259
2.121212,0.969697,-0.0012504272,-0.0028578509,-3.5195832,-72.18825,-9.233639,0.0031194359
2.121212,1.010101,-0.0013125986,-0.0030343346,-3.6676636,-74.85349,-9.199937,0.0033060703
2.121212,1.050505,-0.0013735183,-0.0032171365,-3.8416147,-77.53489,-9.139262,0.0034980737
2.121212,1.0909091,-0.0014328435,-0.0034063887,-4.0422597,-80.2322,-9.054457,0.0036954735
2.121212,1.1313131,-0.0014903359,-0.0036020093,-4.2730007,-82.94563,-8.948114,0.0038981498
2.121212,1.1717172,-0.0015456565,-0.003804028,-4.5351167,-85.6745,-8.823877,0.0041060545
2.121212,1.2121212,-0.0015988089,-0.004012471,-4.8307066,-88.41961,-8.685379,0.0043192725
2.121212,1.2525252,-0.0016494356,-0.0042273216,-5.1612473,-91.17967,-8.536683,0.0045377184
2.121212,1.2929293,-0.0016974993,-0.0044486374,-5.528812,-93.95538,-8.3817425,0.0047614994
2.121212,1.3333334,-0.0017428733,-0.004676316,-5.9334908,-96.745316,-8.225516,0.0049905446
2.121212,1.3737373,-0.0017852895,-0.0049104616,-6.3774595,-99.55024,-8.072441,0.0052249297
2.121212,1.4141414,-0.0018248372,-0.005151009,-6.860648,-102.36873,-7.927631,0.005464698
2.121212,1.4545455,-0.0018612631,-0.0053978544,-7.384346,-105.20122,-7.795812,0.0057097403
2.121212,1.4949495,-0.0018947162,-0.00565115,-7.948569,-108.047676,-7.6824527,0.0059603225
2.121212,1.5353535,-0.0019250028,-0.005910849,-8.553981,-110.90806,-7.592836,0.0062164115
2.121212,1.5757576,-0.0019522421,-0.006176887,-9.200344,-113.78232,-7.532231,0.006478054
2.121212,1.6161616,-0.0019764267,-0.006449325,-9.888516,-116.67195,-7.506029,0.006745373
2.121212,1.6565657,-0.0019976273,-0.0067280754,-10.618054,-119.57613,-7.5191073,0.0070183696
2.121212,1.6969697,-0.0020159483,-0.007013226,-11.386755,-122.49621,-7.5773053,0.007297218
2.121212,1.7373737,-0.002031345,-0.0073047,-12.195897,-125.43337,-7.6845207,0.007581887
2.121212,1.7777778,-0.0020441376,-0.007602537,-13.04442,-128.38982,-7.8465176,0.007872552
2.121212,1.8181819,-0.0020544305,-0.0079067,-13.93032,-131.3661,-8.067338,0.008169246
2.121212,1.8585858,-0.002062466,-0.008217279,-14.853306,-134.36531,-8.351207,0.008472157
2.121212,1.8989899,-0.0020682923,-0.0085342135,-15.811529,-137.38928,-8.702422,0.008781266
2.121212,1.939394,-0.0020721927,-0.008857569,-16.803675,-140.44185,-9.123951,0.0090967305
2.121212,1.979798,-0.0020744018,-0.009187428,-17.828175,-143.52602,-9.619175,0.009418704
2.121212,2.020202,-0.002075225,-0.009523783,-18.882818,-146.64554,-10.190355,0.009747256
2.121212,2.060606,-0.0020748712,-0.009866683,-19.966635,-149.80495,-10.839912,0.010082486
2.121212,2.10101,-0.002073612,-0.010216273,-21.077366,-153.00893,-11.568972,0.010424592
2.121212,2.1414142,-0.0020717643,-0.010572499,-22.213833,-156.26318,-12.378475,0.010773576
2.121212,2.1818182,-0.0020695738,-0.010935646,-23.374184,-159.57379,-13.268349,0.011129756
2.121212,2.2222223,-0.002067279,-0.011305748,-24.55787,-162.94652,-14.238651,0.011493198
2.121212,2.2626262,-0.0020652153,-0.011682937,-25.763018,-166.38805,-15.287898,0.011864069
2.121212,2.3030303,-0.0020635687,-0.012067417,-26.989563,-169.90536,-16.414835,0.012242584
2.121212,2.3434343,-0.0020627305,-0.012459179,-28.237972,-173.50513,-17.61678,0.012628777
2.121212,2.3838384,-0.0020627826,-0.012858702,-29.507402,-177.19556,-18.890833,0.013023105
2.121212,2.4242425,-0.0020639896,-0.013266003,-30.799322,-180.98253,-20.233324,0.013425605
2.121212,2.4646466,-0.002066549,-0.013681302,-32.115437,-184.87291,-21.640312,0.013836497
2.121212,2.5050504,-0.00207052,-0.0141049065,-33.45835,-188.87466,-23.107645,0.014256067
2.121212,2.5454545,-0.0020760484,-0.014537014,-34.83135,-192.99234,-24.62938,0.014684507
2.121212,2.5858586,-0.002083104,-0.014977969,-36.238373,-197.23174,-26.201159,0.015122132
2.121212,2.6262627,-0.0020917505,-0.015427899,-37.685036,-201.59688,-27.817371,0.015569055
2.121212,2.6666667,-0.0021018311,-0.015887082,-39.177433,-206.08932,-29.471777,0.016025513
2.121212,2.7070708,-0.0021132864,-0.016355932,-40.725018,-210.71269,-31.15935,0.016491892
2.121212,2.7474747,-0.0021259487,-0.016834676,-42.3364,-215.4659,-32.873558,0.01696838
2.121212,2.7878788,-0.002139341,-0.017323382,-44.023872,-220.34738,-34.609364,0.017454982
2.121212,2.8282828,-0.002153188,-0.01782244,-45.802055,-225.35518,-36.360443,0.017952036
2.121212,2.868687,-0.002167128,-0.018331952,-47.686565,-230.48203,-38.122253,0.018459603
2.121212,2.909091,-0.0021804757,-0.018852178,-49.699486,-235.72316,-39.88911,0.018977858
2.121212,2.9494948,-0.002192583,-0.019383188,-51.86337,-241.07,-41.65563,0.019506805
2.121212,2.989899,-0.0022028051,-0.019925058,-54.206196,-246.51212,-43.418003,0.020046454
2.121212,3.030303,-0.0022100694,-0.020477764,-56.760242,-252.03842,-45.169914,0.020596681
2.121212,3.070707,-0.00221356,-0.02104139,-59.56609,-257.639,-46.907597,0.021157503
2.121212,3.1111112,-0.0022120997,-0.021615617,-62.66679,-263.2998,-48.6245,0.021728514
2.121212,3.1515152,-0.0022045486,-0.02220041,-66.11571,-269.0112,-50.31581,0.0223096
2.121212,3.191919,-0.0021895133,-0.02279535,-69.97243,-274.7606,-51.974735,0.022900261
2.121212,3.2323232,-0.0021653809,-0.023400225,-74.30536,-280.53983,-53.594227,0.0235002
2.121212,3.2727273,-0.0021307133,-0.02401441,-79.193275,-286.34174,-55.165253,0.02410875
2.121212,3.3131313,-0.0020835064,-0.02463742,-84.72408,-292.1616,-56.676876,0.02472536
2.121212,3.3535354,-0.0020219088,-0.025268491,-90.99564,-297.99823,-58.116875,0.025349256
2.121212,3.3939395,-0.0019437782,-0.025906809,-98.11717,-303.85666,-59.470284,0.025979627
2.121212,3.4343433,-0.0018467195,-0.02655157,-106.204346,-309.74252,-60.719315,0.026615715
2.121212,3.4747474,-0.0017281696,-0.027201783,-115.386536,-315.6707,-61.842968,0.027256625
2.121212,3.5151515,-0.0015854649,-0.02785632,-125.79933,-321.65982,-62.81735,0.027901404
2.121212,3.5555556,-0.0014155768,-0.028513923,-137.58482,-327.73267,-63.614243,0.02854904
2.121212,3.5959597,-0.0012152568,-0.029173493,-150.89081,-333.919,-64.20351,0.029198794
2.121212,3.6363637,-0.0009810664,-0.029833518,-165.86433,-340.25034,-64.54894,0.029849645
2.121212,3.6767676,-0.0007092282,-0.030492537,-182.65518,-346.7645,-64.614235,0.030500785
2.121212,3.7171717,-0.00039569288,-0.031149223,-201.40352,-353.49878,-64.35722,0.031151736
2.121212,3.7575758,-3.6310405e-05,-0.031801827,-222.23962,-360.49133,-63.735283,0.03180185
2.121212,3.7979798,0.00037363917,-0.032448962,-245.28119,-367.78033,-62.704266,0.03245111
2.121212,3.838384,0.0008389428,-0.033088937,-270.62372,-375.3996,-61.217884,0.033099573
2.121212,3.878788,0.001364734,-0.033720206,-298.33966,-383.37787,-59.232018,0.03374781
2.121212,3.9191918,0.0019562617,-0.03434103,-328.46695,-391.7336,-56.70151,0.034396704
2.121212,3.959596,0.0026191957,-0.03494998,-361.0064,-400.47513,-53.586864,0.035047986
2.121212,4.0,0.0033594184,-0.035545375,-395.91614,-409.59708,-49.85055,0.03570377
2.1717172,0.04040404,8.765608e-06,-0.0005011521,2.9518454,-11.802033,-1.7939503,0.0005012288
2.1717172,0.08080808,-1.944229e-05,-0.0005362313,2.0738854,-14.6497345,-2.198694,0.00053658366
2.1717172,0.121212125,-5.045533e-05,-0.00057737343,1.2962162,-17.453869,-2.612485,0.0005795738
2.1717172,0.16161616,-8.415803e-05,-0.00062453374,0.61303663,-20.217634,-3.0318017,0.00063017855
2.1717172,0.2020202,-0.00012046471,-0.0006777663,0.018436156,-22.94451,-3.45336,0.0006883886
2.1717172,0.24242425,-0.00015952066,-0.00073706545,-0.49433246,-25.638098,-3.8735945,0.0007541302
2.1717172,0.28282827,-0.00020125136,-0.0008023679,-0.9319016,-28.302078,-4.28922,0.00082722213
2.1717172,0.32323232,-0.00024540722,-0.0008738246,-1.3003116,-30.940325,-4.696896,0.000907631
2.1717172,0.36363637,-0.0002920702,-0.000951333,-1.6073895,-33.556656,-5.093143,0.000995158
2.1717172,0.4040404,-0.00034106523,-0.0010349676,-1.8594191,-36.155178,-5.4749207,0.0010897171
2.1717172,0.44444445,-0.0003923066,-0.0011247098,-2.0633688,-38.739307,-5.839256,0.0011911661
2.1717172,0.4848485,-0.0004455708,-0.0012205075,-2.2263792,-41.31315,-6.183377,0.0012992967
2.1717172,0.5252525,-0.00050064176,-0.0013225973,-2.3548732,-43.880486,-6.5045047,0.0014141802
2.1717172,0.56565654,-0.0005574152,-0.0014307238,-2.4548886,-46.44369,-6.8002663,0.0015354746
2.1717172,0.6060606,-0.00061566755,-0.0015450716,-2.5334973,-49.007286,-7.0685396,0.0016632176
2.1717172,0.64646465,-0.00067523867,-0.001665663,-2.5959134,-51.573704,-7.307733,0.0017973259
2.1717172,0.68686867,-0.000735648,-0.0017924998,-2.6476908,-54.14553,-7.516163,0.0019375845
2.1717172,0.72727275,-0.0007969402,-0.0019255318,-2.6960444,-56.726448,-7.6929297,0.0020839353
2.1717172,0.7676768,-0.0008586012,-0.0020649135,-2.7438877,-59.31761,-7.8371277,0.0022363057
2.1717172,0.8080808,-0.00092056394,-0.002210606,-2.7966776,-61.92142,-7.9483547,0.0023946224
2.1717172,0.8484849,-0.0009824969,-0.0023626145,-2.8590584,-64.53964,-8.0268545,0.002558759
2.1717172,0.8888889,-0.0010442175,-0.0025210474,-2.9349253,-67.173965,-8.072662,0.0027287488
2.1717172,0.9292929,-0.001105316,-0.0026857387,-3.0275226,-69.824905,-8.087021,0.0029042927
2.1717172,0.969697,-0.0011655577,-0.00285694,-3.1408024,-72.49423,-8.071005,0.003085552
2.1717172,1.010101,-0.00122476,-0.0030345581,-3.2769985,-75.18229,-8.025989,0.0032723967
2.1717172,1.050505,-0.0012826584,-0.0032186247,-3.439253,-77.88975,-7.954531,0.0034647882
2.1717172,1.0909091,-0.0013389997,-0.0034092125,-3.629767,-80.61691,-7.8586545,0.003662738
2.1717172,1.1313131,-0.0013935566,-0.0036062356,-3.850484,-83.36391,-7.7411823,0.0038661268
2.1717172,1.1717172,-0.0014460795,-0.0038097687,-4.103297,-86.130936,-7.605476,0.004074983
2.1717172,1.2121212,-0.001496505,-0.004019864,-4.390022,-88.91777,-7.4547114,0.004289386
2.1717172,1.2525252,-0.001544483,-0.0042364895,-4.7120533,-91.7246,-7.292828,0.0045092427
2.1717172,1.2929293,-0.0015900098,-0.004459586,-5.07001,-94.55061,-7.12368,0.004734558
2.1717172,1.3333334,-0.0016328134,-0.0046893377,-5.4655147,-97.396515,-6.952058,0.0049654776
2.1717172,1.3737373,-0.0016728938,-0.004925631,-5.898882,-100.2614,-6.7819104,0.0052019623
2.1717172,1.4141414,-0.0017101653,-0.00516849,-6.3710055,-103.14498,-6.6184263,0.0054440754
2.1717172,1.4545455,-0.0017444156,-0.0054178704,-6.8823414,-106.04768,-6.4661603,0.0056917756
2.1717172,1.4949495,-0.0017757379,-0.0056739133,-7.433465,-108.96941,-6.330405,0.0059452956
2.1717172,1.5353535,-0.0018041022,-0.0059364643,-8.02401,-111.909935,-6.215823,0.006204546
2.1717172,1.5757576,-0.001829531,-0.006205691,-8.655128,-114.87014,-6.1282163,0.006469759
2.1717172,1.6161616,-0.0018518977,-0.006481411,-9.325159,-117.849045,-6.0719366,0.0067407875
2.1717172,1.6565657,-0.0018713288,-0.006763812,-10.034693,-120.84856,-6.0524974,0.0070179077
2.1717172,1.6969697,-0.001888074,-0.007052783,-10.78322,-123.86852,-6.0747843,0.0073011345
2.1717172,1.7373737,-0.0019020848,-0.0073484443,-11.570048,-126.91013,-6.1438518,0.007590623
2.1717172,1.7777778,-0.0019134842,-0.0076506212,-12.394477,-129.97449,-6.2641726,0.00788628
2.1717172,1.8181819,-0.0019225478,-0.007959552,-13.25552,-133.06328,-6.440187,0.008188446
2.1717172,1.8585858,-0.0019292012,-0.008275118,-14.151842,-136.17796,-6.675982,0.008497023
2.1717172,1.8989899,-0.0019338839,-0.008597402,-15.081646,-139.32079,-6.975417,0.00881222
2.1717172,1.939394,-0.0019367225,-0.00892649,-16.044603,-142.49443,-7.342378,0.009134173
2.1717172,1.979798,-0.0019379072,-0.009262323,-17.039062,-145.7021,-7.778981,0.009462881
2.1717172,2.020202,-0.0019376911,-0.009604989,-18.062609,-148.94678,-8.288394,0.009798492
2.1717172,2.060606,-0.0019364245,-0.009954505,-19.11522,-152.23285,-8.871971,0.0101411
2.1717172,2.10101,-0.0019341893,-0.010311123,-20.1941,-155.56462,-9.532008,0.010490965
2.1717172,2.1414142,-0.0019314177,-0.010674786,-21.298267,-158.94678,-10.268187,0.010848107
2.1717172,2.1818182,-0.0019282773,-0.01104565,-22.42699,-162.38611,-11.081258,0.0112127
2.1717172,2.2222223,-0.0019251145,-0.011423798,-23.57799,-165.88698,-11.970787,0.0115848705
2.1717172,2.2626262,-0.0019220486,-0.011809368,-24.751995,-169.45639,-12.9349375,0.011964758
2.1717172,2.3030303,-0.0019194745,-0.012202555,-25.948181,-173.10231,-13.972375,0.012352601
2.1717172,2.3434343,-0.0019175895,-0.012603514,-27.165903,-176.83115,-15.080398,0.012748557
2.1717172,2.3838384,-0.0019165687,-0.013012443,-28.406391,-180.65111,-16.255594,0.013152828
2.1717172,2.4242425,-0.0019166581,-0.013429489,-29.671741,-184.56961,-17.49394,0.013565572
2.1717172,2.4646466,-0.0019179285,-0.013855023,-30.962374,-188.59529,-18.791523,0.013987142
2.1717172,2.5050504,-0.0019206516,-0.014289139,-32.28255,-192.73576,-20.143278,0.014417642
2.1717172,2.5454545,-0.0019248389,-0.014732145,-33.63485,-196.99918,-21.54354,0.014857358
2.1717172,2.5858586,-0.0019305199,-0.015184302,-35.024418,-201.3907,-22.986671,0.015306532
2.1717172,2.6262627,-0.0019376688,-0.015645951,-36.45539,-205.91788,-24.467113,0.015765479
2.1717172,2.6666667,-0.0019463375,-0.016117286,-37.93645,-210.58582,-25.978119,0.016234381
2.1717172,2.7070708,-0.0019563474,-0.016598728,-39.475536,-215.39912,-27.514038,0.01671362
2.1717172,2.7474747,-0.0019674934,-0.017090429,-41.08138,-220.36076,-29.06842,0.017203307
2.1717172,2.7878788,-0.0019794665,-0.017592773,-42.766502,-225.47156,-30.635641,0.017703783
2.1717172,2.8282828,-0.0019921288,-0.018105935,-44.545887,-230.73198,-32.210175,0.0182152
2.1717172,2.868687,-0.0020048283,-0.018630344,-46.43378,-236.14014,-33.786514,0.018737905
2.1717172,2.909091,-0.002017185,-0.019166172,-48.451317,-241.69293,-35.359737,0.019272031
2.1717172,2.9494948,-0.0020287484,-0.01971355,-50.620724,-247.38387,-36.926186,0.019817667
2.1717172,2.989899,-0.0020386316,-0.02027268,-52.969086,-253.20622,-38.48093,0.020374924
2.1717172,3.030303,-0.0020462498,-0.020843565,-55.528145,-259.15204,-40.02151,0.020943766
2.1717172,3.070707,-0.002050683,-0.021426398,-58.336937,-265.21176,-41.544342,0.021524308
2.1717172,3.1111112,-0.0020509735,-0.02202113,-61.437355,-271.375,-43.046425,0.022116434
2.1717172,3.1515152,-0.002046097,-0.022627678,-64.88295,-277.63257,-44.52597,0.022719998
2.1717172,3.191919,-0.0020348392,-0.023245808,-68.73332,-283.97394,-45.978165,0.023334697
2.1717172,3.2323232,-0.002016034,-0.023875326,-73.05812,-290.39133,-47.40148,0.023960292
2.1717172,3.2727273,-0.0019882284,-0.02451576,-77.9356,-296.8758,-48.79018,0.02459625
2.1717172,3.3131313,-0.0019498728,-0.025166761,-83.46099,-303.42706,-50.139038,0.025242185
2.1717172,3.3535354,-0.0018992461,-0.025827706,-89.73381,-310.04092,-51.44113,0.025897441
2.1717172,3.3939395,-0.0018347017,-0.026497975,-96.87378,-316.7254,-52.686687,0.026561415
2.1717172,3.4343433,-0.0017541982,-0.027176596,-105.010185,-323.4885,-53.863213,0.027233152
2.1717172,3.4747474,-0.0016555414,-0.027862877,-114.285446,-330.34613,-54.955917,0.027912017
2.1717172,3.5151515,-0.0015364848,-0.028555624,-124.856384,-337.31998,-55.94563,0.02859693
2.1717172,3.5555556,-0.0013944097,-0.029253751,-136.89328,-344.4401,-56.809185,0.029286966
2.1717172,3.5959597,-0.0012265965,-0.029956102,-150.57037,-351.74136,-57.520737,0.029981205
2.1717172,3.6363637,-0.0010300316,-0.030661345,-166.07799,-359.26715,-58.046963,0.030678641
2.1717172,3.6767676,-0.0008014776,-0.03136794,-183.60706,-367.06467,-58.352814,0.031378176
2.1717172,3.7171717,-0.0005372055,-0.032074522,-203.35251,-375.18985,-58.397095,0.032079022
2.1717172,3.7575758,-0.00023346022,-0.03277953,-225.50417,-383.69797,-58.135033,0.03278036
2.1717172,3.7979798,0.00011380389,-0.033481225,-250.25058,-392.6513,-57.518135,0.03348142
2.1717172,3.838384,0.00050926954,-0.034178108,-277.75836,-402.1066,-56.495445,0.034181904
2.1717172,3.878788,0.00095759705,-0.034868397,-308.17743,-412.12033,-55.01361,0.034881543
2.1717172,3.9191918,0.001464244,-0.03555039,-341.63687,-422.7448,-53.017624,0.03558053
2.1717172,3.959596,0.0020342283,-0.036222525,-378.22943,-434.0231,-50.45549,0.0362796
2.1717172,4.0,0.002673559,-0.036882915,-418.00522,-445.98447,-47.27391,0.036979686
2.222222,0.04040404,3.30396e-05,-0.00048153475,2.6797671,-11.968776,-1.2679925,0.0004826669
2.222222,0.08080808,5.8598816e-06,-0.00051676854,1.8372109,-14.820081,-1.6270268,0.0005168018
2.222222,0.121212125,-2.3756176e-05,-0.0005580466,1.094918,-17.626986,-1.9964592,0.00055855204
2.222222,0.16161616,-5.5838376e-05,-0.00060544163,0.44683924,-20.392532,-2.3727193,0.0006080111
2.222222,0.2020202,-9.035319e-05,-0.0006589107,-0.11256298,-23.120275,-2.753004,0.0006650767
2.222222,0.24242425,-0.00012739375,-0.0007185545,-0.5901845,-25.814085,-3.1336472,0.00072976004
2.222222,0.28282827,-0.00016682222,-0.00078426674,-0.9929406,-28.47776,-3.511546,0.0008018129
2.222222,0.32323232,-0.00020868704,-0.0008560661,-1.3268794,-31.114988,-3.8834016,0.00088113535
2.222222,0.36363637,-0.0002527833,-0.0009340532,-1.6003021,-33.730732,-4.245967,0.0009676543
2.222222,0.4040404,-0.0002991371,-0.0010180939,-1.8190762,-36.32773,-4.5960703,0.0010611307
2.222222,0.44444445,-0.00034753606,-0.0011082459,-1.9905677,-38.910545,-4.9306226,0.0011614604
2.222222,0.4848485,-0.00039784238,-0.0012046881,-2.121335,-41.483322,-5.247273,0.0012686813
2.222222,0.5252525,-0.00044997036,-0.0013072602,-2.218919,-44.049652,-5.5429096,0.0013825349
2.222222,0.56565654,-0.0005035922,-0.0014159456,-2.2892468,-46.612953,-5.815151,0.001502833
2.222222,0.6060606,-0.0005586967,-0.0015308764,-2.338922,-49.176632,-6.062041,0.0016296394
2.222222,0.64646465,-0.0006149225,-0.0016521662,-2.3740497,-51.744736,-6.2816243,0.0017628905
2.222222,0.68686867,-0.00067215785,-0.0017795786,-2.4000165,-54.31929,-6.4722824,0.0019022871
2.222222,0.72727275,-0.0007301755,-0.001913337,-2.4229274,-56.903553,-6.6328444,0.0020479294
2.222222,0.7676768,-0.000788521,-0.0020535514,-2.4472032,-59.500214,-6.762251,0.002199736
2.222222,0.8080808,-0.0008472875,-0.0021999683,-2.4782896,-62.111034,-6.860338,0.0023574894
2.222222,0.8484849,-0.00090590864,-0.0023527592,-2.5197392,-64.73811,-6.9264903,0.00252114
2.222222,0.8888889,-0.00096427277,-0.0025120452,-2.5757897,-67.38306,-6.9613023,0.0026907607
2.222222,0.9292929,-0.0010221153,-0.0026777647,-2.6508439,-70.04809,-6.9654126,0.0028662072
2.222222,0.969697,-0.0010792352,-0.0028498974,-2.746722,-72.732925,-6.9397025,0.0030474027
2.222222,1.010101,-0.0011352785,-0.003028525,-2.8675144,-75.43991,-6.885685,0.0032343192
2.222222,1.050505,-0.0011900552,-0.0032136831,-3.0150301,-78.16912,-6.8051596,0.0034269507
2.222222,1.0909091,-0.001243405,-0.0034053996,-3.1920073,-80.92121,-6.70048,0.0036253005
2.222222,1.1313131,-0.0012949891,-0.0036036763,-3.3992748,-83.6964,-6.5740023,0.0038292923
2.222222,1.1717172,-0.0013446473,-0.0038085952,-3.639784,-86.495186,-6.428635,0.004038994
2.222222,1.2121212,-0.0013921894,-0.004020069,-3.9144764,-89.31792,-6.267622,0.004254309
2.222222,1.2525252,-0.0014374405,-0.0042382404,-4.224113,-92.16407,-6.09467,0.0044753677
2.222222,1.2929293,-0.0014802516,-0.0044630133,-4.56994,-95.033875,-5.9135914,0.004702088
2.222222,1.3333334,-0.001520548,-0.0046945326,-4.952432,-97.92724,-5.7283864,0.004934643
2.222222,1.3737373,-0.0015582293,-0.0049326885,-5.372427,-100.843796,-5.5433044,0.005172958
2.222222,1.4141414,-0.0015930012,-0.0051776003,-5.8307986,-103.78436,-5.362728,0.0054171206
2.222222,1.4545455,-0.001624953,-0.0054292902,-6.3273964,-106.74832,-5.191606,0.0056672445
2.222222,1.4949495,-0.0016540624,-0.005687624,-6.8626094,-109.73601,-5.034472,0.0059232586
2.222222,1.5353535,-0.0016802885,-0.0059527904,-7.4358664,-112.74707,-4.896609,0.006185393
2.222222,1.5757576,-0.0017035827,-0.0062247813,-8.047947,-115.78202,-4.7824907,0.0064536887
2.222222,1.6161616,-0.0017240457,-0.0065034833,-8.69799,-118.84095,-4.6972456,0.006728122
2.222222,1.6565657,-0.0017417185,-0.0067890827,-9.3860855,-121.92486,-4.645627,0.007008939
2.222222,1.6969697,-0.0017566644,-0.0070815366,-10.111658,-125.03418,-4.6328015,0.0072961655
2.222222,1.7373737,-0.0017689578,-0.0073808096,-10.873807,-128.16924,-4.663033,0.007589833
2.222222,1.7777778,-0.0017788038,-0.0076870136,-11.672069,-131.33125,-4.740861,0.007890141
2.222222,1.8181819,-0.0017862357,-0.008000132,-12.505554,-134.52173,-4.8709764,0.0081971185
2.222222,1.8585858,-0.0017915182,-0.0083201695,-13.373343,-137.74156,-5.0569634,0.008510861
2.222222,1.8989899,-0.0017948076,-0.008647323,-14.274281,-140.9934,-5.302747,0.00883162
2.222222,1.939394,-0.0017962717,-0.008981472,-15.206707,-144.2788,-5.611649,0.009159336
2.222222,1.979798,-0.0017962009,-0.0093227085,-16.169947,-147.60034,-5.986092,0.009494168
2.222222,2.020202,-0.0017948113,-0.009671066,-17.162638,-150.96106,-6.4291024,0.009836202
2.222222,2.060606,-0.0017922558,-0.010026727,-18.183033,-154.36502,-6.9424295,0.010185649
2.222222,2.10101,-0.001788795,-0.010389639,-19.229315,-157.8141,-7.5267935,0.010542504
2.222222,2.1414142,-0.0017848909,-0.010760047,-20.301924,-161.3156,-8.183972,0.010907082
2.222222,2.1818182,-0.0017805248,-0.011137888,-21.39922,-164.87325,-8.912703,0.011279309
2.222222,2.2222223,-0.0017761625,-0.011523362,-22.52107,-168.49309,-9.713138,0.011659443
2.222222,2.2626262,-0.001771938,-0.01191663,-23.665161,-172.18091,-10.5837,0.012047648
2.222222,2.3030303,-0.0017680489,-0.012317773,-24.832865,-175.94334,-11.522183,0.0124440165
2.222222,2.3434343,-0.0017649457,-0.012727026,-26.02632,-179.79005,-12.52598,0.0128488215
2.222222,2.3838384,-0.0017625429,-0.013144603,-27.242617,-183.72597,-13.59125,0.013262245
2.222222,2.4242425,-0.0017612204,-0.013570575,-28.486547,-187.7609,-14.714373,0.013684385
2.222222,2.4646466,-0.0017611757,-0.014005281,-29.76004,-191.90419,-15.890155,0.014115581
2.222222,2.5050504,-0.0017623529,-0.014448861,-31.064648,-196.1628,-17.113081,0.014555942
2.222222,2.5454545,-0.0017648824,-0.014901776,-32.406696,-200.54764,-18.377625,0.015005923
2.222222,2.5858586,-0.0017690025,-0.015364062,-33.78903,-205.06541,-19.67791,0.015465568
2.222222,2.6262627,-0.0017745085,-0.015836142,-35.21976,-209.72527,-21.006678,0.015935253
2.222222,2.6666667,-0.0017814711,-0.016318329,-36.70444,-214.53542,-22.358109,0.016415281
2.222222,2.7070708,-0.0017897859,-0.016810898,-38.25294,-219.50217,-23.72486,0.016905906
2.222222,2.7474747,-0.0017992333,-0.01731417,-39.874775,-224.6304,-25.100866,0.017407404
2.222222,2.7878788,-0.0018097572,-0.017828416,-41.58229,-229.92542,-26.47991,0.017920034
2.222222,2.8282828,-0.0018207058,-0.018353999,-43.3883,-235.38992,-27.85542,0.018444084
2.222222,2.868687,-0.0018319897,-0.018891346,-45.310204,-241.02663,-29.222422,0.018979967
2.222222,2.909091,-0.0018431284,-0.019440524,-47.366394,-246.8326,-30.57626,0.019527702
2.222222,2.9494948,-0.0018536635,-0.020001981,-49.580414,-252.80809,-31.912975,0.020087691
2.222222,2.989899,-0.0018629692,-0.020575859,-51.976986,-258.9488,-33.230064,0.020660024
2.222222,3.030303,-0.0018704347,-0.021162242,-54.587082,-265.2477,-34.523907,0.02124474
2.222222,3.070707,-0.0018753484,-0.021761473,-57.448757,-271.70084,-35.79392,0.02184213
2.222222,3.1111112,-0.0018768273,-0.022373553,-60.602665,-278.29843,-37.038723,0.022452135
2.222222,3.1515152,-0.0018739812,-0.022998486,-64.09963,-285.0321,-38.259037,0.023074707
2.222222,3.191919,-0.0018659942,-0.023636196,-67.99942,-291.8953,-39.45426,0.023709737
2.222222,3.2323232,-0.0018516257,-0.024286538,-72.36926,-298.87836,-40.624935,0.024357019
2.222222,3.2727273,-0.0018298887,-0.024949271,-77.29003,-305.97705,-41.771957,0.025016287
2.222222,3.3131313,-0.0017994083,-0.025624044,-82.85383,-313.18723,-42.893456,0.025687147
2.222222,3.3535354,-0.0017589517,-0.02631031,-89.165565,-320.5076,-43.98924,0.02636904
2.222222,3.3939395,-0.001707036,-0.027007733,-96.349396,-327.9459,-45.0549,0.027061626
2.222222,3.4343433,-0.0016421117,-0.02771537,-104.53945,-335.5099,-46.086143,0.027763974
2.222222,3.4747474,-0.0015624426,-0.02843254,-113.89078,-343.21725,-47.073086,0.02847544
2.222222,3.5151515,-0.0014661774,-0.029158384,-124.57379,-351.09235,-48.004494,0.029195223
2.222222,3.5555556,-0.0013512969,-0.029891677,-136.77692,-359.16666,-48.864147,0.029922206
2.222222,3.5959597,-0.001215592,-0.030631319,-150.70308,-367.48154,-49.630535,0.030655429
2.222222,3.6363637,-0.0010564663,-0.031376082,-166.56978,-376.0871,-50.27782,0.031393863
2.222222,3.6767676,-0.000871446,-0.032124594,-184.61246,-385.0419,-50.774315,0.03213641
2.222222,3.7171717,-0.00065736845,-0.032875303,-205.06796,-394.41193,-51.08179,0.032881875
2.222222,3.7575758,-0.00041100755,-0.033626795,-228.18344,-404.27173,-51.157436,0.033629306
2.222222,3.7979798,-0.00012885034,-0.03437729,-254.21053,-414.7016,-50.95129,0.034377534
2.222222,3.838384,0.00019316003,-0.035125107,-283.38858,-425.78424,-50.409325,0.035125636
2.222222,3.878788,0.0005592294,-0.035868634,-315.95297,-437.60312,-49.472992,0.035872992
2.222222,3.9191918,0.00097424537,-0.036606,-352.1139,-450.24268,-48.07903,0.03661896
2.222222,3.959596,0.0014431365,-0.037335493,-392.06216,-463.77988,-46.163513,0.037363373
2.222222,4.0,0.0019715764,-0.038055316,-435.949,-478.28525,-43.65901,0.038106352
2.2727273,0.04040404,5.6590885e-05,-0.00045859814,2.392318,-12.111834,-0.7483602,0.0004620766
2.2727273,0.08080808,3.0707568e-05,-0.0004938543,1.5851208,-14.964531,-1.0625621,0.0004948081
2.2727273,0.121212125,2.5331974e-06,-0.0005353186,0.878299,-17.77191,-1.3884032,0.0005353246
2.2727273,0.16161616,-2.7816743e-05,-0.000582844,0.2656704,-20.537539,-1.7226719,0.00058350747
2.2727273,0.2020202,-6.0450286e-05,-0.0006365571,-0.2587946,-23.26466,-2.0621994,0.000639421
2.2727273,0.24242425,-9.5363706e-05,-0.00069633685,-0.7010164,-25.957102,-2.404185,0.00070283655
2.2727273,0.28282827,-0.00013253838,-0.00076230615,-1.0689965,-28.619352,-2.745127,0.0007737423
2.2727273,0.32323232,-0.00017182902,-0.000834398,-1.3682885,-31.254593,-3.0821762,0.0008519068
2.2727273,0.36363637,-0.00021330267,-0.0009126924,-1.607151,-33.868004,-3.411784,0.0009372862
2.2727273,0.4040404,-0.0002568327,-0.0009970721,-1.7919575,-36.462696,-3.7312083,0.0010296192
2.2727273,0.44444445,-0.00030234084,-0.0010876823,-1.9298929,-39.04329,-4.037399,0.0011289212
2.2727273,0.4848485,-0.00034962967,-0.0011844244,-2.0282376,-41.61409,-4.3272986,0.0012349501
2.2727273,0.5252525,-0.00039864704,-0.0012874044,-2.0936472,-44.178368,-4.5984693,0.0013477127
2.2727273,0.56565654,-0.00044908375,-0.0013966002,-2.1329021,-46.74056,-4.848442,0.001467027
2.2727273,0.6060606,-0.00050089136,-0.0015120655,-2.1521158,-49.303932,-5.075083,0.0015928698
2.2727273,0.64646465,-0.00055382773,-0.0016337931,-2.157692,-51.871723,-5.276113,0.0017251101
2.2727273,0.68686867,-0.00060774013,-0.001761822,-2.1554284,-54.447453,-5.450182,0.0018636966
2.2727273,0.72727275,-0.00066230074,-0.0018962044,-2.1508162,-57.034042,-5.5957236,0.00200854
2.2727273,0.7676768,-0.0007173568,-0.002036946,-2.1493704,-59.63407,-5.7117624,0.0021595715
2.2727273,0.8080808,-0.0007726811,-0.0021840427,-2.1555529,-62.24996,-5.797808,0.0023166956
2.2727273,0.8484849,-0.00082798675,-0.002337575,-2.1736228,-64.88384,-5.853228,0.002479883
2.2727273,0.8888889,-0.0008830577,-0.0024975594,-2.2075937,-67.53749,-5.878503,0.0026490742
2.2727273,0.9292929,-0.0009375438,-0.0026641153,-2.2609813,-70.21278,-5.8738847,0.0028242695
2.2727273,0.969697,-0.0009913743,-0.0028370284,-2.337668,-72.91122,-5.8399863,0.003005254
2.2727273,1.010101,-0.0010442324,-0.003016604,-2.4396577,-75.63329,-5.7783175,0.0031922283
2.2727273,1.050505,-0.0010958798,-0.003202714,-2.5693958,-78.38029,-5.690466,0.0033850153
2.2727273,1.0909091,-0.0011459999,-0.0033954233,-2.7295048,-81.15312,-5.578162,0.0035836038
2.2727273,1.1313131,-0.0011945032,-0.0035948232,-2.9205022,-83.95161,-5.444159,0.0037880854
2.2727273,1.1717172,-0.0012412928,-0.003800908,-3.1457825,-86.777245,-5.290934,0.0039984635
2.2727273,1.2121212,-0.0012859032,-0.004013641,-3.4047718,-89.629654,-5.1214075,0.0042146007
2.2727273,1.2525252,-0.0013283677,-0.004233107,-3.6993206,-92.50862,-4.9389586,0.0044366377
2.2727273,1.2929293,-0.0013684221,-0.0044593774,-4.0301337,-95.41505,-4.7473383,0.0046646143
2.2727273,1.3333334,-0.0014060624,-0.0046924353,-4.397648,-98.348755,-4.549853,0.004898567
2.2727273,1.3737373,-0.0014410019,-0.004932303,-4.8021655,-101.30983,-4.3512206,0.005138492
2.2727273,1.4141414,-0.0014733896,-0.0051789563,-5.244398,-104.29824,-4.155267,0.005384465
2.2727273,1.4545455,-0.0015028529,-0.005432602,-5.723584,-107.314545,-3.9665153,0.0056366418
2.2727273,1.4949495,-0.0015296973,-0.00569308,-6.2408037,-110.35841,-3.7895849,0.005895009
2.2727273,1.5353535,-0.0015536137,-0.005960485,-6.795245,-113.42994,-3.6290338,0.0061596343
2.2727273,1.5757576,-0.0015747249,-0.0062348917,-7.386757,-116.529724,-3.489577,0.006430679
2.2727273,1.6161616,-0.0015930831,-0.0065162797,-8.015188,-119.65795,-3.375833,0.00670819
2.2727273,1.6565657,-0.0016086996,-0.0068047326,-8.680209,-122.81529,-3.2924626,0.006992303
2.2727273,1.6969697,-0.0016217194,-0.0071000922,-9.381583,-126.00189,-3.2441485,0.007282945
2.2727273,1.7373737,-0.0016321577,-0.007402707,-10.1183405,-129.2188,-3.2351406,0.007580502
2.2727273,1.7777778,-0.0016401447,-0.0077123046,-10.890029,-132.46674,-3.2700438,0.007884778
2.2727273,1.8181819,-0.0016458593,-0.008029155,-11.69534,-135.74683,-3.3528795,0.008196108
2.2727273,1.8585858,-0.0016494803,-0.008353289,-12.534055,-139.06044,-3.4874654,0.008514589
2.2727273,1.8989899,-0.0016510859,-0.008684641,-13.4048195,-142.40865,-3.6773639,0.008840196
2.2727273,1.939394,-0.0016510524,-0.009023277,-14.307411,-145.79352,-3.9256294,0.009173086
2.2727273,1.979798,-0.0016494319,-0.009369347,-15.239509,-149.21709,-4.23526,0.0095134275
2.2727273,2.020202,-0.0016465224,-0.009722805,-16.20117,-152.6823,-4.6081123,0.0098612355
2.2727273,2.060606,-0.0016425252,-0.010083789,-17.190619,-156.19104,-5.046414,0.010216687
2.2727273,2.10101,-0.0016376749,-0.01045241,-18.207272,-159.74779,-5.550977,0.010579927
2.2727273,2.1414142,-0.0016322918,-0.0108287465,-19.250887,-163.35663,-6.1223893,0.0109510785
2.2727273,2.1818182,-0.0016264915,-0.011212768,-20.319431,-167.02118,-6.7606606,0.011330121
2.2727273,2.2222223,-0.0016206838,-0.01160489,-21.413593,-170.74722,-7.4650626,0.011717512
2.2727273,2.2626262,-0.0016150624,-0.012004903,-22.533081,-174.54001,-8.2342205,0.012113055
2.2727273,2.3030303,-0.0016097166,-0.012413226,-23.678421,-178.40727,-9.065189,0.012517163
2.2727273,2.3434343,-0.0016050152,-0.012829894,-24.849943,-182.35536,-9.95575,0.012929898
2.2727273,2.3838384,-0.0016011521,-0.013255045,-26.050236,-186.39243,-10.901751,0.0133514
2.2727273,2.4242425,-0.0015982687,-0.013689008,-27.280678,-190.52625,-11.898966,0.013781995
2.2727273,2.4646466,-0.001596462,-0.014131861,-28.543314,-194.76636,-12.941831,0.01422175
2.2727273,2.5050504,-0.0015959926,-0.014583921,-29.844437,-199.12279,-14.024767,0.0146709895
2.2727273,2.5454545,-0.0015969127,-0.015045404,-31.186422,-203.60414,-15.142107,0.015129915
2.2727273,2.5858586,-0.0015992634,-0.015516587,-32.57589,-208.22136,-16.286808,0.015598785
2.2727273,2.6262627,-0.0016029738,-0.015997786,-34.01861,-212.98306,-17.451397,0.016077895
2.2727273,2.6666667,-0.0016081892,-0.016489375,-35.52391,-217.89963,-18.629375,0.016567612
2.2727273,2.7070708,-0.0016146228,-0.01699156,-37.098755,-222.97963,-19.812948,0.017068101
2.2727273,2.7474747,-0.0016222261,-0.01750464,-38.756783,-228.2316,-20.994947,0.017579649
2.2727273,2.7878788,-0.0016309321,-0.018029101,-40.508453,-233.66273,-22.169296,0.018102719
2.2727273,2.8282828,-0.0016402416,-0.01856516,-42.36717,-239.2785,-23.329147,0.018637476
2.2727273,2.868687,-0.0016500615,-0.019113205,-44.35127,-245.08447,-24.468775,0.019184299
2.2727273,2.909091,-0.0016598068,-0.019673605,-46.478867,-251.08385,-25.583042,0.019743497
2.2727273,2.9494948,-0.0016693212,-0.020246528,-48.77177,-257.2774,-26.669003,0.020315228
2.2727273,2.989899,-0.0016778186,-0.020832501,-51.25532,-263.66443,-27.722736,0.020899957
2.2727273,3.030303,-0.0016849451,-0.02143152,-53.958496,-270.2436,-28.743288,0.021497654
2.2727273,3.070707,-0.0016900301,-0.022044003,-56.91892,-277.0109,-29.730417,0.022108693
2.2727273,3.1111112,-0.0016924031,-0.02267,-60.175365,-283.96274,-30.68475,0.022733085
2.2727273,3.1515152,-0.001691442,-0.023309644,-63.77554,-291.08975,-31.608664,0.023370933
2.2727273,3.191919,-0.0016861297,-0.023963042,-67.77527,-298.38785,-32.505226,0.02402229
2.2727273,3.2323232,-0.001675766,-0.024630077,-72.245346,-305.85196,-33.377987,0.024687018
2.2727273,3.2727273,-0.0016595535,-0.025310632,-77.258705,-313.47507,-34.232433,0.02536498
2.2727273,3.3131313,-0.0016364492,-0.026004404,-82.908394,-321.25485,-35.072407,0.026055843
2.2727273,3.3535354,-0.0016053952,-0.026711162,-89.29797,-329.191,-35.902714,0.026759362
2.2727273,3.3939395,-0.0015654154,-0.027430445,-96.550545,-337.2886,-36.726234,0.027475078
2.2727273,3.4343433,-0.0015152209,-0.028161637,-104.805534,-345.55692,-37.54427,0.02820237
2.2727273,3.4747474,-0.0014537387,-0.028904073,-114.22252,-354.01376,-38.35756,0.028940607
2.2727273,3.5151515,-0.0013794191,-0.02965685,-124.977394,-362.68097,-39.160496,0.029688913
2.2727273,3.5555556,-0.0012908876,-0.030419186,-137.27325,-371.5952,-39.946068,0.030446563
2.2727273,3.5959597,-0.0011865385,-0.03118971,-151.32964,-380.7968,-40.700993,0.03121227
2.2727273,3.6363637,-0.0010644943,-0.031967536,-167.38934,-390.34302,-41.407375,0.031985257
2.2727273,3.6767676,-0.00092282146,-0.032751173,-185.71541,-400.29733,-42.03991,0.03276417
2.2727273,3.7171717,-0.0007590838,-0.033539236,-206.58446,-410.73563,-42.56718,0.033547826
2.2727273,3.7575758,-0.00057091936,-0.03433017,-230.29378,-421.7466,-42.950737,0.034334917
2.2727273,3.7979798,-0.00035532936,-0.03512242,-257.14575,-433.425,-43.142956,0.03512422
2.2727273,3.838384,-0.00010912493,-0.035914198,-287.45038,-445.87613,-43.08943,0.03591436
2.2727273,3.878788,0.00017131492,-0.03670372,-321.51572,-459.2095,-42.729397,0.03670412
2.2727273,3.9191918,0.00049004704,-0.037489258,-359.63986,-473.5371,-41.99486,0.03749246
2.2727273,3.959596,0.0008515939,-0.03826895,-402.10904,-488.97314,-40.813053,0.038278423
2.2727273,4.0,0.0012609065,-0.039040938,-449.17477,-505.62424,-39.104877,0.039061293
2.3232322,0.04040404,7.945672e-05,-0.00043259002,2.0968158,-12.230186,-0.23910454,0.0004398267
2.3232322,0.08080808,5.4843724e-05,-0.00046788156,1.3243214,-15.082381,-0.50925434,0.0004710849
2.3232322,0.121212125,2.8338283e-05,-0.00050930306,0.6524863,-17.888567,-0.79216105,0.00051009085
2.3232322,0.16161616,-2.4214387e-07,-0.0005569346,0.075070255,-20.65226,-1.0850266,0.0005569347
2.3232322,0.2020202,-3.087893e-05,-0.0006107483,-0.414178,-23.377167,-1.385092,0.00061152846
2.3232322,0.24242425,-6.354973e-05,-0.0006706584,-0.8217455,-26.067331,-1.6890354,0.0006736626
2.3232322,0.28282827,-9.826571e-05,-0.00073671713,-1.154571,-28.726538,-1.9940091,0.00074324175
2.3232322,0.32323232,-0.0001350455,-0.0008090362,-1.4195254,-31.359188,-2.2968874,0.00082022976
2.3232322,0.36363637,-0.00017374381,-0.0008875597,-1.6235857,-33.969276,-2.5945308,0.00090440543
2.3232322,0.4040404,-0.0002143532,-0.00097223744,-1.7741023,-36.560883,-2.8840086,0.0009955867
2.3232322,0.44444445,-0.0002568625,-0.0010630768,-1.878411,-39.138603,-3.1623213,0.0010936684
2.3232322,0.4848485,-0.0003010705,-0.001160074,-1.9431038,-41.706142,-3.4266846,0.0011985054
2.3232322,0.5252525,-0.000346791,-0.0012634341,-1.9754157,-44.268024,-3.6743336,0.001310164
2.3232322,0.56565654,-0.00039401278,-0.0013729669,-1.9820111,-46.827885,-3.9028518,0.0014283851
2.3232322,0.6060606,-0.0004423894,-0.0014888514,-1.9696667,-49.389656,-4.110025,0.0015531861
2.3232322,0.64646465,-0.00049196556,-0.0016109757,-1.9444672,-51.956776,-4.293602,0.0016844206
2.3232322,0.68686867,-0.000542406,-0.0017394722,-1.9122643,-54.532574,-4.4518867,0.0018220778
2.3232322,0.72727275,-0.0005935244,-0.0018743053,-1.8782684,-57.119904,-4.5834904,0.0019660345
2.3232322,0.7676768,-0.0006451346,-0.0020155478,-1.8489182,-59.722187,-4.687171,0.0021162778
2.3232322,0.8080808,-0.0006969571,-0.0021631792,-1.827829,-62.341156,-4.7620707,0.0022726841
2.3232322,0.8484849,-0.0007487647,-0.0023173373,-1.8202565,-64.98033,-4.807986,0.002435303
2.3232322,0.8888889,-0.00080044195,-0.002477944,-1.8297365,-67.64072,-4.824387,0.0026040187
2.3232322,0.9292929,-0.00085158274,-0.0026451368,-1.8594056,-70.32422,-4.8119082,0.0027788382
2.3232322,0.969697,-0.0009020716,-0.002818834,-1.9133407,-73.03256,-4.7709823,0.0029596551
2.3232322,1.010101,-0.0009515621,-0.002999166,-1.9938182,-75.767166,-4.7028384,0.0031465008
2.3232322,1.050505,-0.0009999983,-0.0031860918,-2.103522,-78.52882,-4.60854,0.0033393379
2.3232322,1.0909091,-0.0010469593,-0.003379738,-2.2437575,-81.318375,-4.490143,0.003538185
2.3232322,1.1313131,-0.0010923706,-0.0035800636,-2.4167922,-84.13667,-4.3496704,0.0037430106
2.3232322,1.1717172,-0.0011360459,-0.0037870817,-2.6232266,-86.983536,-4.1894364,0.0039538066
2.3232322,1.2121212,-0.0011776276,-0.004000958,-2.8649118,-89.86061,-4.0124736,0.004170668
2.3232322,1.2525252,-0.0012172014,-0.00422162,-3.1424043,-92.76734,-3.8215299,0.0043935925
2.3232322,1.2929293,-0.0012544654,-0.0044491235,-3.4560273,-95.70423,-3.620238,0.004622595
2.3232322,1.3333334,-0.0012892447,-0.004683558,-3.8066938,-98.67158,-3.4119263,0.0048577636
2.3232322,1.3737373,-0.0013215356,-0.004924869,-4.1939535,-101.669586,-3.2005277,0.0050990973
2.3232322,1.4141414,-0.001351241,-0.005173182,-4.617814,-104.69783,-2.9901445,0.0053467434
2.3232322,1.4545455,-0.0013782233,-0.0054284744,-5.0790906,-107.757576,-2.7844038,0.005600699
2.3232322,1.4949495,-0.0014025047,-0.0056907944,-5.576877,-110.84857,-2.5882647,0.0058610714
2.3232322,1.5353535,-0.0014240108,-0.0059601963,-6.1108603,-113.97045,-2.4056842,0.006127948
2.3232322,1.5757576,-0.0014428534,-0.0062366873,-6.681512,-117.12437,-2.2413344,0.0064014136
2.3232322,1.6161616,-0.0014589392,-0.0065203346,-7.2877626,-120.310776,-2.0993364,0.006681562
2.3232322,1.6565657,-0.0014724173,-0.006811196,-7.9300423,-123.52987,-1.9843376,0.0069685294
2.3232322,1.6969697,-0.001483269,-0.0071092993,-8.606753,-126.78236,-1.9006234,0.007262384
2.3232322,1.7373737,-0.0014916472,-0.0074146744,-9.317527,-130.06813,-1.8521025,0.0075632273
2.3232322,1.7777778,-0.0014976747,-0.0077273194,-10.06267,-133.38896,-1.843331,0.007871117
2.3232322,1.8181819,-0.0015014373,-0.008047445,-10.841058,-136.7457,-1.8780353,0.0081863105
2.3232322,1.8585858,-0.0015031844,-0.008375006,-11.651316,-140.1388,-1.9599766,0.008508836
2.3232322,1.8989899,-0.0015030205,-0.008710021,-12.493999,-143.57042,-2.0922656,0.008838752
2.3232322,1.939394,-0.001501143,-0.009052567,-13.366865,-147.04074,-2.2776964,0.009176186
2.3232322,1.979798,-0.0014977343,-0.009402784,-14.270015,-150.55252,-2.5193827,0.00952132
2.3232322,2.020202,-0.001493156,-0.009760747,-15.203207,-154.10767,-2.819116,0.0098742945
2.3232322,2.060606,-0.0014874525,-0.010126414,-16.164635,-157.70868,-3.1784258,0.010235076
2.3232322,2.10101,-0.0014809705,-0.010499891,-17.154097,-161.35791,-3.5987701,0.010603819
2.3232322,2.1414142,-0.0014739372,-0.010881422,-18.1711,-165.05913,-4.0800686,0.010980794
2.3232322,2.1818182,-0.0014665686,-0.011270948,-19.216043,-168.81636,-4.622179,0.011365961
2.3232322,2.2222223,-0.0014591217,-0.011668716,-20.287691,-172.63408,-5.224666,0.01175959
2.3232322,2.2626262,-0.0014517196,-0.012074692,-21.387184,-176.51765,-5.885165,0.012161648
2.3232322,2.3030303,-0.001444798,-0.012489157,-22.515907,-180.47275,-6.60213,0.01257245
2.3232322,2.3434343,-0.0014385134,-0.012912093,-23.674477,-184.50603,-7.3715186,0.012991977
2.3232322,2.3838384,-0.0014328286,-0.013344001,-24.864916,-188.62595,-8.189733,0.013420707
2.3232322,2.4242425,-0.0014282279,-0.01378471,-26.090425,-192.84003,-9.052579,0.013858502
2.3232322,2.4646466,-0.0014247373,-0.014234593,-27.354643,-197.15706,-9.953833,0.014305716
2.3232322,2.5050504,-0.0014225021,-0.01469389,-28.660158,-201.58678,-10.88791,0.014762585
2.3232322,2.5454545,-0.0014216043,-0.0151626915,-30.015387,-206.14021,-11.848115,0.015229188
2.3232322,2.5858586,-0.0014221296,-0.01564141,-31.422842,-210.82657,-12.826869,0.015705926
2.3232322,2.6262627,-0.0014240257,-0.01613029,-32.89268,-215.65732,-13.817041,0.016193027
2.3232322,2.6666667,-0.001427304,-0.01662961,-34.43199,-220.64362,-14.811193,0.01669075
2.3232322,2.7070708,-0.001431901,-0.017139763,-36.05238,-225.7974,-15.800748,0.017199472
2.3232322,2.7474747,-0.0014377646,-0.017660968,-37.764053,-231.12762,-16.778357,0.017719395
2.3232322,2.7878788,-0.0014446937,-0.018193647,-39.579956,-236.64388,-17.736408,0.018250916
2.3232322,2.8282828,-0.0014523454,-0.01873808,-41.514973,-242.35617,-18.667973,0.01879428
2.3232322,2.868687,-0.0014607087,-0.019294616,-43.585663,-248.2718,-19.5675,0.019349828
2.3232322,2.909091,-0.0014691912,-0.019863676,-45.81091,-254.39682,-20.428751,0.019917935
2.3232322,2.9494948,-0.0014775097,-0.020445634,-48.21294,-260.73672,-21.248318,0.02049895
2.3232322,2.989899,-0.001485344,-0.021040812,-50.81538,-267.29453,-22.023333,0.021093175
2.3232322,3.030303,-0.0014921948,-0.021649327,-53.64976,-274.0719,-22.752117,0.021700691
2.3232322,3.070707,-0.001497563,-0.022271711,-56.746365,-281.0677,-23.435963,0.022322003
2.3232322,3.1111112,-0.0015008226,-0.022908088,-60.14627,-288.28094,-24.076384,0.022957198
2.3232322,3.1515152,-0.0015014447,-0.023558643,-63.893578,-295.70767,-24.677568,0.023606438
2.3232322,3.191919,-0.0014988258,-0.024223533,-68.04206,-303.34402,-25.245111,0.024269858
2.3232322,3.2323232,-0.001492329,-0.024902787,-72.65524,-311.1859,-25.786226,0.02494746
2.3232322,3.2727273,-0.0014813729,-0.025596492,-77.80755,-319.23065,-26.310478,0.025639324
2.3232322,3.3131313,-0.00146522,-0.02630429,-83.58486,-327.4735,-26.82575,0.026345067
2.3232322,3.3535354,-0.0014431737,-0.027026132,-90.088875,-335.915,-27.342363,0.027064636
2.3232322,3.3939395,-0.0014145039,-0.027761579,-97.43738,-344.55966,-27.871252,0.027797591
2.3232322,3.4343433,-0.0013784952,-0.028510377,-105.76986,-353.4171,-28.421284,0.028543683
2.3232322,3.4747474,-0.0013343878,-0.029271789,-115.242935,-362.50095,-29.000187,0.029302187
2.3232322,3.5151515,-0.0012813397,-0.03004507,-126.03649,-371.83383,-29.612661,0.03007238
2.3232322,3.5555556,-0.0012183562,-0.030829504,-138.35803,-381.45053,-30.260475,0.03085357
2.3232322,3.5959597,-0.0011445358,-0.03162405,-152.43661,-391.39404,-30.941038,0.031644754
2.3232322,3.6363637,-0.0010587126,-0.03242761,-168.52942,-401.71866,-31.645813,0.032444887
2.3232322,3.6767676,-0.00095960125,-0.033238888,-186.91827,-412.49292,-32.358727,0.03325274
2.3232322,3.7171717,-0.0008458756,-0.034056574,-207.91136,-423.79916,-33.057774,0.034067076
2.3232322,3.7575758,-0.00071565807,-0.034879193,-231.83904,-435.73315,-33.71168,0.03488653
2.3232322,3.7979798,-0.00056694075,-0.03570508,-259.05112,-448.40295,-34.279015,0.03570958
2.3232322,3.838384,-0.00039751455,-0.036532618,-289.9112,-461.92828,-34.71065,0.03653478
2.3232322,3.878788,-0.00020456687,-0.03735991,-324.79572,-476.44104,-34.946037,0.037360467
2.3232322,3.9191918,1.5072525e-05,-0.03818528,-364.08267,-492.081,-34.91564,0.038185284
2.3232322,3.959596,0.00026507676,-0.039006665,-408.14075,-508.99023,-34.54069,0.039007567
2.3232322,4.0,0.00054963306,-0.039822366,-457.32782,-527.31433,-33.737038,0.03982616
2.3737373,0.04040404,0.00010155514,-0.00040371343,1.7986939,-12.324134,0.25636804,0.00041629074
2.3737373,0.08080808,7.839501e-05,-0.00043898262,1.0608153,-15.173622,0.029559642,0.0004459277
2.3737373,0.121212125,5.350262e-05,-0.00048037432,0.42353964,-17.976816,-0.2113247,0.00048334463
2.3737373,0.16161616,2.6840717e-05,-0.0005279705,-0.11934725,-20.737286,-0.4636079,0.00052865234
2.3737373,0.2020202,-1.6093254e-06,-0.000581773,-0.5739513,-23.458843,-0.7247068,0.0005817752
2.3737373,0.24242425,-3.1966716e-05,-0.0006417632,-0.9470266,-26.145111,-0.9915013,0.00064255885
2.3737373,0.28282827,-6.417185e-05,-0.0007080026,-1.2451508,-28.800453,-1.2611943,0.00071090483
2.3737373,0.32323232,-9.823963e-05,-0.00078035146,-1.475539,-31.428911,-1.530729,0.00078651094
2.3737373,0.36363637,-0.00013408065,-0.0008589439,-1.6454118,-34.035,-1.7970679,0.0008693459
2.3737373,0.4040404,-0.00017175078,-0.000943711,-1.7615831,-36.622612,-2.0573838,0.0009592126
2.3737373,0.44444445,-0.00021110103,-0.0010347962,-1.8314961,-39.196453,-2.3086245,0.0010561093
2.3737373,0.4848485,-0.00025202706,-0.0011320505,-1.8624582,-41.760757,-2.5480301,0.0011597655
2.3737373,0.5252525,-0.00029444695,-0.0012355633,-1.8611904,-44.31913,-2.7728117,0.0012701636
2.3737373,0.56565654,-0.0003382899,-0.0013454333,-1.8347938,-46.876102,-2.9805417,0.0013873107
2.3737373,0.6060606,-0.0003833063,-0.0014615469,-1.7897428,-49.4354,-3.1687973,0.0015109741
2.3737373,0.64646465,-0.00042929873,-0.0015840232,-1.7322683,-52.00091,-3.3354897,0.0016411664
2.3737373,0.68686867,-0.00047621503,-0.0017128624,-1.668709,-54.575798,-3.4788983,0.0017778296
2.3737373,0.72727275,-0.000523895,-0.0018480588,-1.604807,-57.16316,-3.5969918,0.0019208819
2.3737373,0.7676768,-0.00057190284,-0.0019897297,-1.5453899,-59.766495,-3.688959,0.002070289
2.3737373,0.8080808,-0.0006201565,-0.002137836,-1.4955014,-62.387753,-3.7534592,0.0022259688
2.3737373,0.8484849,-0.00066846237,-0.0022924505,-1.4599959,-65.03006,-3.7901194,0.002387922
2.3737373,0.8888889,-0.00071657076,-0.0024536252,-1.4426813,-67.695404,-3.7986221,0.00255612
2.3737373,0.9292929,-0.00076427683,-0.0026213024,-1.4470905,-70.38532,-3.7789247,0.0027304478
2.3737373,0.969697,-0.0008113198,-0.002795577,-1.4760243,-73.10152,-3.7315884,0.002910926
2.3737373,1.010101,-0.00085746124,-0.0029765498,-1.532854,-75.84561,-3.6573255,0.003097594
2.3737373,1.050505,-0.0009024963,-0.0031641684,-1.6198397,-78.61891,-3.557363,0.003290359
2.3737373,1.0909091,-0.0009462051,-0.0033586621,-1.7388487,-81.422325,-3.4334586,0.0034894003
2.3737373,1.1313131,-0.0009883977,-0.0035597216,-1.8909184,-84.256165,-3.2869313,0.0036943941
2.3737373,1.1717172,-0.0010289028,-0.00376774,-2.0775466,-87.12082,-3.1207843,0.0039057017
2.3737373,1.2121212,-0.0010674708,-0.0039825086,-2.2999961,-90.018105,-2.9366133,0.0041230894
2.3737373,1.2525252,-0.0011040047,-0.004204167,-2.5584953,-92.947014,-2.7377605,0.004346705
2.3737373,1.2929293,-0.0011382736,-0.004432762,-2.8535545,-95.9087,-2.5273106,0.004576576
2.3737373,1.3333334,-0.0011702217,-0.0046684034,-3.1857579,-98.90347,-2.3086207,0.004812838
2.3737373,1.3737373,-0.0011997484,-0.0049109347,-3.5544171,-101.93092,-2.085028,0.005055361
2.3737373,1.4141414,-0.0012266673,-0.0051606335,-3.960046,-104.99207,-1.8601325,0.005304418
2.3737373,1.4545455,-0.0012510642,-0.005417414,-4.4018326,-108.0869,-1.6384847,0.0055599944
2.3737373,1.4949495,-0.0012727417,-0.0056812484,-4.8801384,-111.2156,-1.4231962,0.005822066
2.3737373,1.5353535,-0.0012917817,-0.00595231,-5.394584,-114.3785,-1.218906,0.0060908697
2.3737373,1.5757576,-0.0013080724,-0.006230643,-5.9440017,-117.57638,-1.0295584,0.006366472
2.3737373,1.6161616,-0.0013218224,-0.0065162554,-6.5289884,-120.80976,-0.8593815,0.00664897
2.3737373,1.6565657,-0.0013329387,-0.0068092123,-7.1480236,-124.07844,-0.71265787,0.0069384505
2.3737373,1.6969697,-0.001341559,-0.0071095377,-7.8013487,-127.38398,-0.5931969,0.007235006
2.3737373,1.7373737,-0.0013476983,-0.007417381,-8.488134,-130.72652,-0.50497204,0.0075388215
2.3737373,1.7777778,-0.0013515465,-0.007732654,-9.208017,-134.107,-0.45199412,0.00784988
2.3737373,1.8181819,-0.0013532788,-0.008055422,-9.96077,-137.5253,-0.437581,0.008168304
2.3737373,1.8585858,-0.0013529435,-0.008385897,-10.74509,-140.9838,-0.46531114,0.008494334
2.3737373,1.8989899,-0.0013506822,-0.008724045,-11.561277,-144.48317,-0.53834385,0.008827984
2.3737373,1.939394,-0.001346875,-0.009069946,-12.4080305,-148.02393,-0.6596155,0.009169404
2.3737373,1.979798,-0.001341626,-0.0094236415,-13.285363,-151.60773,-0.8312779,0.009518665
2.3737373,2.020202,-0.0013349876,-0.009785354,-14.192839,-155.23727,-1.0551608,0.009875999
2.3737373,2.060606,-0.0013275295,-0.01015492,-15.13045,-158.91386,-1.3327415,0.010241324
2.3737373,2.10101,-0.0013191774,-0.010532621,-16.096872,-162.63945,-1.6649334,0.010614911
2.3737373,2.1414142,-0.0013103224,-0.010918407,-17.092903,-166.4167,-2.0521343,0.0109967515
2.3737373,2.1818182,-0.0013010725,-0.011312565,-18.118477,-170.25005,-2.494046,0.011387139
2.3737373,2.2222223,-0.0012918264,-0.011715053,-19.174128,-174.14207,-2.9893951,0.011786062
2.3737373,2.2626262,-0.0012827106,-0.012126004,-20.260597,-178.09831,-3.5368838,0.012193659
2.3737373,2.3030303,-0.0012739301,-0.012545604,-21.379683,-182.12347,-4.1333365,0.012610119
2.3737373,2.3434343,-0.0012657158,-0.012973994,-22.532839,-186.22438,-4.7756376,0.013035588
2.3737373,2.3838384,-0.0012583993,-0.013411228,-23.72305,-190.40701,-5.4601064,0.0134701375
2.3737373,2.4242425,-0.0012519322,-0.013857665,-24.952454,-194.6796,-6.1814065,0.013914101
2.3737373,2.4646466,-0.0012465902,-0.014313307,-26.226194,-199.05017,-6.933935,0.014367489
2.3737373,2.5050504,-0.0012425818,-0.014778381,-27.549206,-203.52858,-7.7116466,0.014830529
2.3737373,2.5454545,-0.0012398213,-0.01525325,-28.926243,-208.12575,-8.507562,0.015303555
2.3737373,2.5858586,-0.0012385212,-0.015737992,-30.366062,-212.85233,-9.313729,0.015786652
2.3737373,2.6262627,-0.001238592,-0.01623299,-31.87608,-217.71974,-10.122535,0.016280174
2.3737373,2.6666667,-0.0012401417,-0.016738497,-33.465393,-222.73999,-10.925215,0.016784376
2.3737373,2.7070708,-0.0012429729,-0.017254777,-35.144703,-227.92503,-11.713763,0.017299488
2.3737373,2.7474747,-0.0012472011,-0.017782152,-36.92721,-233.287,-12.479827,0.017825836
2.3737373,2.7878788,-0.0012524538,-0.018320922,-38.825115,-238.83827,-13.2149515,0.018363683
2.3737373,2.8282828,-0.0012587272,-0.018871546,-40.85431,-244.59006,-13.9120245,0.018913478
2.3737373,2.868687,-0.0012657233,-0.019434284,-43.03157,-250.5525,-14.564084,0.019475458
2.3737373,2.909091,-0.0012730882,-0.020009592,-45.377586,-256.73633,-15.164894,0.02005005
2.3737373,2.9494948,-0.0012806654,-0.02059767,-47.9122,-263.14835,-15.710717,0.020637445
2.3737373,2.989899,-0.0012880377,-0.021199092,-50.66068,-269.79602,-16.198427,0.021238185
2.3737373,3.030303,-0.0012948476,-0.021813974,-53.65141,-276.68405,-16.626688,0.02185237
2.3737373,3.070707,-0.0013005622,-0.02244287,-56.916,-283.81665,-16.995888,0.022480521
2.3737373,3.1111112,-0.0013048835,-0.023085881,-60.49069,-291.19342,-17.309801,0.02312273
2.3737373,3.1515152,-0.0013073795,-0.023743395,-64.41993,-298.8164,-17.57325,0.023779362
2.3737373,3.191919,-0.0013076253,-0.0244155,-68.75255,-306.68292,-17.794264,0.024450492
2.3737373,3.2323232,-0.0013050921,-0.025102466,-73.54654,-314.7911,-17.982868,0.02513637
2.3737373,3.2727273,-0.0012992844,-0.025804259,-78.87295,-323.13892,-18.150433,0.025836948
2.3737373,3.3131313,-0.001290027,-0.026520867,-84.81177,-331.72458,-18.312191,0.026552223
2.3737373,3.3535354,-0.0012767911,-0.027252212,-91.4584,-340.5474,-18.482645,0.027282106
2.3737373,3.3939395,-0.0012592264,-0.027998067,-98.92474,-349.61154,-18.678469,0.02802637
2.3737373,3.4343433,-0.0012369603,-0.028758168,-107.343094,-358.9237,-18.917053,0.028784757
2.3737373,3.4747474,-0.0012096278,-0.029531997,-116.86608,-368.4977,-19.213634,0.02955676
2.3737373,3.5151515,-0.0011770241,-0.030318901,-127.66914,-378.3526,-19.583586,0.030341739
2.3737373,3.5555556,-0.0011386313,-0.031118281,-139.9567,-388.51944,-20.039137,0.031139106
2.3737373,3.5959597,-0.0010945201,-0.031929206,-153.95987,-399.0391,-20.588657,0.031947963
2.3737373,3.6363637,-0.0010439456,-0.032750696,-169.93948,-409.96558,-21.234735,0.03276733
2.3737373,3.6767676,-0.0009863786,-0.03358155,-188.18703,-421.3651,-21.973417,0.033596035
2.3737373,3.7171717,-0.0009215027,-0.034420516,-209.02847,-433.3222,-22.794365,0.03443285
2.3737373,3.7575758,-0.00084831193,-0.035266165,-232.81538,-445.9353,-23.676008,0.03527637
2.3737373,3.7979798,-0.00076585636,-0.036116965,-259.93204,-459.32,-24.58827,0.036125083
2.3737373,3.838384,-0.0006727986,-0.036971293,-290.78537,-473.60767,-25.48797,0.036977414
2.3737373,3.878788,-0.00056746975,-0.037827257,-325.80377,-488.94336,-26.32163,0.03783151
2.3737373,3.9191918,-0.00044777617,-0.038683116,-365.427,-505.4866,-27.021887,0.038685706
2.3737373,3.959596,-0.0003110431,-0.03953686,-410.1078,-523.40845,-27.50996,0.03953808
2.3737373,4.0,-0.00015408918,-0.040386718,-460.28876,-542.8831,-27.696135,0.040387012
2.4242425,0.04040404,0.0001228489,-0.0003723111,1.5040617,-12.393436,0.73518896,0.00039205537
2.4242425,0.08080808,0.00010120496,-0.0004074201,0.80008054,-15.238621,0.55091673,0.00041980183
2.4242425,0.121212125,7.813051e-05,-0.0004487373,0.19692016,-18.036987,0.3513965,0.00045548822
2.4242425,0.16161616,5.344674e-05,-0.0004962478,-0.31232157,-20.792679,0.13889714,0.00049911765
2.4242425,0.2020202,2.7213246e-05,-0.00054998323,-0.73304546,-23.509249,-0.083984256,0.00055065606
2.4242425,0.24242425,-7.0780516e-07,-0.00060990825,-1.0718863,-26.190563,-0.31435227,0.00060990866
2.4242425,0.28282827,-3.0301511e-05,-0.00067616627,-1.3357382,-28.840778,-0.54935855,0.0006768449
2.4242425,0.32323232,-6.151572e-05,-0.0007485524,-1.5322495,-31.464518,-0.78616613,0.0007510758
2.4242425,0.36363637,-9.4432384e-05,-0.00082715787,-1.667621,-34.065273,-1.021934,0.00083253084
2.4242425,0.4040404,-0.00012901053,-0.0009120386,-1.7498767,-36.648453,-1.2536587,0.00092111784
2.4242425,0.44444445,-0.00016510859,-0.0010031406,-1.7860792,-39.21781,-1.4783931,0.0010166375
2.4242425,0.4848485,-0.00020276383,-0.0011005513,-1.7831072,-41.777573,-1.6932157,0.0011190738
2.4242425,0.5252525,-0.00024176389,-0.001204215,-1.7480869,-44.332005,-1.8957084,0.001228244
2.4242425,0.56565654,-0.0002821125,-0.0013141986,-1.6882483,-46.8855,-2.083181,0.0013441375
2.4242425,0.6060606,-0.00032352656,-0.0014305562,-1.6100205,-49.441765,-2.252908,0.0014666835
2.4242425,0.64646465,-0.00036606565,-0.00155323,-1.5200711,-52.0046,-2.4030542,0.0015957842
2.4242425,0.68686867,-0.00040931627,-0.0016822983,-1.4244651,-54.577747,-2.5317323,0.0017313773
2.4242425,0.72727275,-0.00045323,-0.0018178355,-1.3285081,-57.164303,-2.6368568,0.0018734842
2.4242425,0.7676768,-0.0004976876,-0.001959769,-1.2386277,-59.767296,-2.7172732,0.0020219763
2.4242425,0.8080808,-0.0005423166,-0.0021081977,-1.1585294,-62.389755,-2.7717235,0.0021768336
2.4242425,0.8484849,-0.0005870126,-0.0022631772,-1.0934992,-65.03388,-2.7995288,0.0023380665
2.4242425,0.8888889,-0.0006315075,-0.0024247486,-1.0481375,-67.70249,-2.8001654,0.0025056351
2.4242425,0.9292929,-0.0006756075,-0.002592899,-1.0252955,-70.39723,-2.7735288,0.002679472
2.4242425,0.969697,-0.00071916357,-0.0027677286,-1.0284891,-73.11983,-2.7198765,0.002859636
2.4242425,1.010101,-0.0007617958,-0.0029492117,-1.0598003,-75.87133,-2.639875,0.003046011
2.4242425,1.050505,-0.00080348924,-0.003137486,-1.1225504,-78.65366,-2.5346258,0.0032387364
2.4242425,1.0909091,-0.0008438155,-0.0033324622,-1.2180625,-81.46757,-2.4048862,0.003437634
2.4242425,1.1313131,-0.00088266656,-0.0035343245,-1.347861,-84.31371,-2.2527602,0.0036428766
2.4242425,1.1717172,-0.00091996044,-0.003743006,-1.5134238,-87.19299,-2.0801816,0.0038544028
2.4242425,1.2121212,-0.0009554215,-0.0039585866,-1.7149421,-90.105415,-1.8892676,0.004072252
2.4242425,1.2525252,-0.0009887777,-0.004181139,-1.9540513,-93.05279,-1.6827611,0.0042964644
2.4242425,1.2929293,-0.001020018,-0.0044106822,-2.2296433,-96.03387,-1.4633648,0.004527091
2.4242425,1.3333334,-0.0010490455,-0.004647296,-2.5428598,-99.049965,-1.2340875,0.0047642267
2.4242425,1.3737373,-0.001075644,-0.0048909523,-2.8929455,-102.101105,-0.998282,0.005007836
2.4242425,1.4141414,-0.0010997579,-0.0051417165,-3.2798293,-105.18738,-0.7592634,0.0052580144
2.4242425,1.4545455,-0.001121413,-0.005399663,-3.70328,-108.309525,-0.52077144,0.0055148825
2.4242425,1.4949495,-0.001140397,-0.0056648795,-4.1626525,-111.467606,-0.28666377,0.005778526
2.4242425,1.5353535,-0.0011567436,-0.005937418,-4.6570373,-114.66233,-0.060473282,0.0060490486
2.4242425,1.5757576,-0.0011705793,-0.006217284,-5.1875687,-117.89435,0.15384017,0.0063265217
2.4242425,1.6161616,-0.0011817627,-0.006504517,-5.7514024,-121.16297,0.35251546,0.0066109984
2.4242425,1.6565657,-0.001190383,-0.0067992546,-6.35044,-124.47071,0.5317028,0.0069026714
2.4242425,1.6969697,-0.001196634,-0.0071013533,-6.982058,-127.816124,0.6871495,0.0072014686
2.4242425,1.7373737,-0.0012004338,-0.0074111,-7.6469955,-131.20166,0.8158843,0.007507692
2.4242425,1.7777778,-0.0012019537,-0.0077285506,-8.344742,-134.62718,0.91405463,0.0078214565
2.4242425,1.8181819,-0.0012014508,-0.0080536045,-9.074511,-138.0933,0.9781601,0.008142729
2.4242425,1.8585858,-0.0011988766,-0.0083865,-9.836297,-141.60173,1.0051299,0.008471759
2.4242425,1.8989899,-0.0011945106,-0.008727202,-10.62918,-145.15237,0.9924496,0.008808571
2.4242425,1.939394,-0.0011885874,-0.009075783,-11.45426,-148.74704,0.9371317,0.009153282
2.4242425,1.979798,-0.001181215,-0.00943239,-12.30953,-152.38644,0.8375402,0.0095060645
2.4242425,2.020202,-0.0011725873,-0.009797014,-13.196011,-156.07227,0.6913405,0.009866937
2.4242425,2.060606,-0.0011630245,-0.010169826,-14.114366,-159.80635,0.49779105,0.010236112
2.4242425,2.10101,-0.0011526681,-0.010550814,-15.063119,-163.58932,0.2558173,0.0106135905
2.4242425,2.1414142,-0.0011417978,-0.010940142,-16.043808,-167.42479,-0.03439804,0.010999564
2.4242425,2.1818182,-0.0011307038,-0.011337882,-17.057005,-171.31462,-0.3728765,0.011394124
2.4242425,2.2222223,-0.0011194572,-0.011744162,-18.103125,-175.2625,-0.75776166,0.011797395
2.4242425,2.2626262,-0.001108434,-0.012159109,-19.183872,-179.2714,-1.1879306,0.012209528
2.4242425,2.3030303,-0.0010978021,-0.012582766,-20.301311,-183.34642,-1.6600521,0.012630565
2.4242425,2.3434343,-0.0010877028,-0.013015298,-21.457283,-187.49307,-2.1711924,0.013060669
2.4242425,2.3838384,-0.0010784082,-0.0134569,-22.655283,-191.7167,-2.7167845,0.013500041
2.4242425,2.4242425,-0.001070179,-0.013907626,-23.899061,-196.02536,-3.2925298,0.0139487395
2.4242425,2.4646466,-0.0010630228,-0.014367746,-25.193045,-200.4261,-3.8916585,0.014407017
2.4242425,2.5050504,-0.0010571666,-0.014837302,-26.542665,-204.92776,-4.508524,0.0148749165
2.4242425,2.5454545,-0.0010525994,-0.015316658,-27.955715,-209.54185,-5.134974,0.015352784
2.4242425,2.5858586,-0.0010496154,-0.015805863,-29.438675,-214.27734,-5.763966,0.015840676
2.4242425,2.6262627,-0.0010479502,-0.016305365,-31.000462,-219.14767,-6.3868704,0.016339006
2.4242425,2.6666667,-0.0010478497,-0.016815227,-32.65143,-224.16347,-6.9951386,0.016847843
2.4242425,2.7070708,-0.0010491833,-0.017335773,-34.403797,-229.33926,-7.5790997,0.017367493
2.4242425,2.7474747,-0.001051914,-0.017867345,-36.268932,-234.68797,-8.130726,0.017898284
2.4242425,2.7878788,-0.0010559075,-0.018410191,-38.263897,-240.22287,-8.640937,0.018440446
2.4242425,2.8282828,-0.0010609701,-0.018964726,-40.401318,-245.95798,-9.101565,0.018994382
2.4242425,2.868687,-0.0010669753,-0.019531216,-42.701584,-251.90579,-9.504853,0.019560339
2.4242425,2.909091,-0.0010736994,-0.020110011,-45.182384,-258.07843,-9.845094,0.020138653
2.4242425,2.9494948,-0.0010807812,-0.020701557,-47.86742,-264.4883,-10.116441,0.02072975
2.4242425,2.989899,-0.0010880418,-0.021306239,-50.778618,-271.144,-10.316489,0.021334002
2.4242425,3.030303,-0.0010952242,-0.021924302,-53.945454,-278.0548,-10.443174,0.02195164
2.4242425,3.070707,-0.0011018403,-0.022556134,-57.39705,-285.22736,-10.49728,0.022583028
2.4242425,3.1111112,-0.0011076666,-0.023202091,-61.169575,-292.6677,-10.482354,0.023228515
2.4242425,3.1515152,-0.0011124946,-0.02386247,-65.30251,-300.3773,-10.405649,0.02388839
2.4242425,3.191919,-0.0011158176,-0.024537519,-69.84198,-308.3591,-10.274279,0.024562875
2.4242425,3.2323232,-0.0011174828,-0.025227468,-74.841484,-316.61206,-10.1018915,0.025252206
2.4242425,3.2727273,-0.0011173673,-0.025932457,-80.36663,-325.13776,-9.90337,0.025956517
2.4242425,3.3131313,-0.0011151321,-0.026652493,-86.48829,-333.93484,-9.696143,0.026675811
2.4242425,3.3535354,-0.0011106543,-0.027387783,-93.296135,-343.00342,-9.50092,0.027410293
2.4242425,3.3939395,-0.0011040717,-0.02813799,-100.8936,-352.34506,-9.340599,0.02815964
2.4242425,3.4343433,-0.001095295,-0.028903015,-109.40313,-361.9677,-9.23834,0.028923761
2.4242425,3.4747474,-0.0010844171,-0.029682532,-118.96639,-371.87918,-9.220319,0.029702334
2.4242425,3.5151515,-0.0010716729,-0.030475974,-129.74991,-382.09845,-9.309297,0.030494811
2.4242425,3.5555556,-0.0010573491,-0.03128282,-141.94972,-392.65005,-9.529848,0.031300683
2.4242425,3.5959597,-0.001041688,-0.032102406,-155.78937,-403.57184,-9.900027,0.0321193
2.4242425,3.6363637,-0.0010250174,-0.032933764,-171.52591,-414.91147,-10.437758,0.032949712
2.4242425,3.6767676,-0.0010077469,-0.033775724,-189.4503,-426.7326,-11.151107,0.033790756
2.4242425,3.7171717,-0.0009900369,-0.03462726,-209.89024,-439.11603,-12.043769,0.03464141
2.4242425,3.7575758,-0.0009722896,-0.035486937,-233.21014,-452.15875,-13.108067,0.03550025
2.4242425,3.7979798,-0.0009543076,-0.036353394,-259.8096,-465.97775,-14.325984,0.03636592
2.4242425,3.838384,-0.0009361096,-0.03722495,-290.1232,-480.70697,-15.666755,0.037236717
2.4242425,3.878788,-0.0009169355,-0.038099855,-324.61624,-496.50198,-17.08615,0.038110886
2.4242425,3.9191918,-0.0008959733,-0.03897632,-363.78244,-513.5369,-18.523151,0.038986616
2.4242425,3.959596,-0.0008719601,-0.039852418,-408.1298,-531.99774,-19.904688,0.039861955
2.4242425,4.0,-0.0008428134,-0.040726185,-458.17798,-552.08575,-21.140186,0.040734906
2.4747474,0.04040404,0.00014331192,-0.00033863634,1.2181116,-12.4388,1.1950471,0.00036771302
2.4747474,0.08080808,0.00012325495,-0.00037350506,0.547532,-15.277343,1.0525857,0.00039331644
2.4747474,0.121212125,0.0001020655,-0.00041464902,-0.022676641,-18.069372,0.8933974,0.00042702598
2.4747474,0.16161616,7.950142e-05,-0.00046203285,-0.4984034,-20.818745,0.7199605,0.00046882284
2.4747474,0.2020202,5.560741e-05,-0.0005156584,-0.8858842,-23.52902,0.5347426,0.00051864807
2.4747474,0.24242425,3.0260533e-05,-0.0005755238,-1.1916842,-26.20417,0.3401817,0.0005763188
2.4747474,0.28282827,3.40119e-06,-0.00064168125,-1.4225552,-28.848526,0.13910736,0.0006416903
2.4747474,0.32323232,-2.494827e-05,-0.00071401894,-1.5855262,-31.466242,-0.06548227,0.0007144547
2.4747474,0.36363637,-5.4884702e-05,-0.0007925611,-1.6878319,-34.061405,-0.27103367,0.0007944592
2.4747474,0.4040404,-8.628145e-05,-0.0008774251,-1.7366776,-36.638794,-0.47451648,0.0008816571
2.4747474,0.44444445,-0.000119030476,-0.0009685308,-1.7389694,-39.202717,-0.67315143,0.0009758177
2.4747474,0.4848485,-0.00015326217,-0.001065975,-1.7025841,-41.757435,-0.8640278,0.0010769365
2.4747474,0.5252525,-0.00018885732,-0.0011696424,-1.6343435,-44.307064,-1.0444281,0.0011847913
2.4747474,0.56565654,-0.0002255477,-0.0012797173,-1.5409487,-46.85617,-1.2115585,0.0012994414
2.4747474,0.6060606,-0.00026333705,-0.0013961401,-1.4297526,-49.40863,-1.3632104,0.0014207581
2.4747474,0.64646465,-0.00030210614,-0.0015189927,-1.3067642,-51.968323,-1.4970725,0.0015487437
2.4747474,0.68686867,-0.00034165755,-0.0016481653,-1.1785371,-54.538795,-1.6109307,0.0016832049
2.4747474,0.72727275,-0.00038184226,-0.001783913,-1.0505722,-57.123543,-1.7032229,0.0018243216
2.4747474,0.7676768,-0.00042255968,-0.0019260049,-0.9290312,-59.725277,-1.7720888,0.0019718143
2.4747474,0.8080808,-0.00046344846,-0.0020747222,-0.818468,-62.347866,-1.8164821,0.0021258544
2.4747474,0.8484849,-0.00050442293,-0.0022299774,-0.7237451,-64.99316,-1.8352876,0.0022863161
2.4747474,0.8888889,-0.0005452521,-0.0023918226,-0.64863706,-67.66351,-1.8279696,0.0024531847
2.4747474,0.9292929,-0.00058569387,-0.002560323,-0.5973315,-70.36096,-1.7942431,0.0026264598
2.4747474,0.969697,-0.0006256178,-0.0027355086,-0.5731529,-73.08785,-1.7343098,0.002806137
2.4747474,1.010101,-0.0006647296,-0.0029174332,-0.5785662,-75.84505,-1.648269,0.0029922035
2.4747474,1.050505,-0.0007028356,-0.0031060763,-0.6159859,-78.63405,-1.5369885,0.0031846017
2.4747474,1.0909091,-0.0007397346,-0.003301641,-0.68741345,-81.455894,-1.4014999,0.0033834954
2.4747474,1.1313131,-0.0007752441,-0.0035040453,-0.794145,-84.31151,-1.2434204,0.0035887791
2.4747474,1.1717172,-0.00080920383,-0.0037132986,-0.9374299,-87.20152,-1.0643593,0.0038004469
2.4747474,1.2121212,-0.00084134564,-0.003929591,-1.1183494,-90.12654,-0.8661408,0.00401865
2.4747474,1.2525252,-0.0008716099,-0.0041527953,-1.3365442,-93.08661,-0.6514109,0.004243279
2.4747474,1.2929293,-0.00089973956,-0.0043831468,-1.5931963,-96.08348,-0.42266822,0.00447454
2.4747474,1.3333334,-0.00092569366,-0.004620556,-1.8874494,-99.11563,-0.18244073,0.0047123716
2.4747474,1.3737373,-0.0009493232,-0.004865112,-2.2187965,-102.18393,0.06612839,0.0049568666
2.4747474,1.4141414,-0.0009705238,-0.005116824,-2.5879729,-105.28918,0.31974006,0.0052080518
2.4747474,1.4545455,-0.0009892844,-0.005375823,-2.993649,-108.43132,0.5751517,0.0054660914
2.4747474,1.4949495,-0.0010055974,-0.005642075,-3.4357204,-111.61099,0.828809,0.0057309894
2.4747474,1.5353535,-0.0010191835,-0.0059158113,-3.9131832,-114.82881,1.0775715,0.0060029626
2.4747474,1.5757576,-0.0010303631,-0.0061968565,-4.4253564,-118.08457,1.3174337,0.006281933
2.4747474,1.6161616,-0.0010389201,-0.006485451,-4.9718585,-121.379074,1.5450078,0.0065681376
2.4747474,1.6565657,-0.0010450482,-0.00678147,-5.5524263,-124.7129,1.7569302,0.00686152
2.4747474,1.6969697,-0.0010487027,-0.0070850626,-6.16583,-128.08679,1.9494668,0.007162255
2.4747474,1.7373737,-0.0010500737,-0.007396467,-6.812546,-131.50214,2.1189587,0.0074706343
2.4747474,1.7777778,-0.0010492615,-0.007715527,-7.4916887,-134.95865,2.2628183,0.0077865464
2.4747474,1.8181819,-0.0010462552,-0.008042393,-8.202665,-138.45738,2.3777015,0.008110163
2.4747474,1.8585858,-0.0010414347,-0.008377083,-8.945875,-141.99902,2.4606125,0.008441569
2.4747474,1.8989899,-0.0010347925,-0.008719735,-9.720831,-145.58505,2.5089533,0.008780921
2.4747474,1.939394,-0.001026541,-0.009070395,-10.527771,-149.21582,2.52093,0.009128299
2.4747474,1.979798,-0.0010169968,-0.009429172,-11.367446,-152.89221,2.4940891,0.009483858
2.4747474,2.020202,-0.0010062195,-0.009796102,-12.238505,-156.6155,2.4271038,0.009847644
2.4747474,2.060606,-0.0009945072,-0.010171277,-13.143368,-160.38768,2.3187997,0.010219781
2.4747474,2.10101,-0.0009820126,-0.0105548,-14.080838,-164.20898,2.168917,0.010600384
2.4747474,2.1414142,-0.00096917525,-0.010946689,-15.052991,-168.08136,1.9773582,0.010989509
2.4747474,2.1818182,-0.0009559393,-0.011347182,-16.059765,-172.00752,1.7445347,0.011387377
2.4747474,2.2222223,-0.00094271824,-0.011756232,-17.10416,-175.98932,1.4721631,0.011793969
2.4747474,2.2626262,-0.0009297468,-0.012174057,-18.186815,-180.02977,1.1615169,0.012209509
2.4747474,2.3030303,-0.00091714785,-0.012600662,-19.310333,-184.1329,0.81586003,0.012633996
2.4747474,2.3434343,-0.00090517476,-0.013036137,-20.478245,-188.30286,0.43856695,0.013067526
2.4747474,2.3838384,-0.00089392066,-0.013480838,-21.693357,-192.54507,0.034129392,0.013510444
2.4747474,2.4242425,-0.00088390335,-0.013934551,-22.959967,-196.86424,-0.39337993,0.013962557
2.4747474,2.4646466,-0.00087497756,-0.014397692,-24.284052,-201.26938,-0.836788,0.014424254
2.4747474,2.5050504,-0.0008674264,-0.014870323,-25.67101,-205.76767,-1.2903028,0.014895601
2.4747474,2.5454545,-0.00086119026,-0.015352584,-27.128761,-210.36943,-1.7459235,0.01537672
2.4747474,2.5858586,-0.00085656345,-0.015844628,-28.664583,-215.0825,-2.1965048,0.015867764
2.4747474,2.6262627,-0.00085345656,-0.016346812,-30.28906,-219.92168,-2.6322668,0.016369076
2.4747474,2.6666667,-0.00085193664,-0.016859233,-32.013054,-224.89786,-3.0450165,0.016880745
2.4747474,2.7070708,-0.000852067,-0.017382141,-33.847797,-230.02382,-3.4254742,0.017403012
2.4747474,2.7474747,-0.0008536428,-0.017915927,-35.807533,-235.31462,-3.7640657,0.017936252
2.4747474,2.7878788,-0.0008565895,-0.018460639,-37.907795,-240.78441,-4.0511026,0.0184805
2.4747474,2.8282828,-0.0008609481,-0.019016739,-40.163998,-246.44751,-4.2787685,0.019036219
2.4747474,2.868687,-0.0008664094,-0.019584596,-42.59541,-252.31996,-4.4380565,0.019603752
2.4747474,2.909091,-0.0008729175,-0.020164296,-45.223206,-258.4162,-4.5226817,0.020183181
2.4747474,2.9494948,-0.00088011846,-0.020756498,-48.06508,-264.74872,-4.5263033,0.020775149
2.4747474,2.989899,-0.00088785216,-0.02136138,-51.149685,-271.3319,-4.445708,0.021379825
2.4747474,3.030303,-0.00089599565,-0.021979343,-54.500538,-278.1767,-4.2788005,0.021997597
2.4747474,3.070707,-0.00090405345,-0.02261071,-58.15031,-285.29526,-4.0254197,0.022628775
2.4747474,3.1111112,-0.0009120628,-0.023255896,-62.129227,-292.69424,-3.6902297,0.023273773
2.4747474,3.1515152,-0.0009197183,-0.023915164,-66.476364,-300.3805,-3.2796452,0.023932843
2.4747474,3.191919,-0.00092676654,-0.024588857,-71.23295,-308.35938,-2.8035424,0.024606315
2.4747474,3.2323232,-0.0009332821,-0.025277257,-76.44889,-316.634,-2.2756546,0.02529448
2.4747474,3.2727273,-0.00093906,-0.025980595,-82.180885,-325.2069,-1.7130998,0.02599756
2.4747474,3.3131313,-0.00094428286,-0.026698958,-88.495514,-334.07785,-1.137392,0.026715651
2.4747474,3.3535354,-0.0009490289,-0.027432434,-95.47197,-343.24838,-0.5735801,0.027448844
2.4747474,3.3939395,-0.0009534992,-0.02818102,-103.2016,-352.71945,-0.048905183,0.028197147
2.4747474,3.4343433,-0.0009581372,-0.028944686,-111.79707,-362.49722,0.40587753,0.02896054
2.4747474,3.4747474,-0.00096350536,-0.029723153,-121.38625,-372.58734,0.75818616,0.029738765
2.4747474,3.5151515,-0.0009701736,-0.030516002,-132.12201,-383.00366,0.9741921,0.030531421
2.4747474,3.5555556,-0.000978969,-0.031322982,-144.18614,-393.76776,1.0197015,0.03133828
2.4747474,3.5959597,-0.0009909049,-0.032143325,-157.78699,-404.90887,0.8624978,0.032158595
2.4747474,3.6363637,-0.0010068603,-0.03297625,-173.16875,-416.46878,0.47339484,0.032991618
2.4747474,3.6767676,-0.0010281466,-0.033820845,-190.61043,-428.5043,-0.17061472,0.03383647
2.4747474,3.7171717,-0.0010557957,-0.034676075,-210.434,-441.08832,-1.0883579,0.034692146
2.4747474,3.7575758,-0.0010911115,-0.035540625,-232.99751,-454.3112,-2.2880983,0.03555737
2.4747474,3.7979798,-0.001135055,-0.036413245,-258.70712,-468.28812,-3.7671604,0.036430933
2.4747474,3.838384,-0.0011887439,-0.037292294,-288.00568,-483.15036,-5.5102415,0.037311237
2.4747474,3.878788,-0.0012529008,-0.03817611,-321.38025,-499.0537,-7.485674,0.038196664
2.4747474,3.9191918,-0.0013278238,-0.03906299,-359.35022,-516.1756,-9.645718,0.039085552
2.4747474,3.959596,-0.0014136694,-0.039950978,-402.47076,-534.7162,-11.924853,0.039975982
2.4747474,4.0,-0.001509849,-0.040838096,-451.31848,-554.8912,-14.238522,0.040866
2.5252526,0.04040404,0.00016296282,-0.00030289777,0.9460834,-12.460326,1.6336423,0.0003439534
2.5252526,0.08080808,0.0001447089,-0.00033760816,0.3079342,-15.290714,1.5321796,0.0003673145
2.5252526,0.121212125,0.00012543797,-0.00037848204,-0.23011531,-18.074686,1.4129773,0.00039872716
2.5252526,0.16161616,0.000105094165,-0.00042568333,-0.67356616,-20.816198,1.2778064,0.00043846449
2.5252526,0.2020202,8.357316e-05,-0.00047919154,-1.0289743,-23.518944,1.1293426,0.00048642472
2.5252526,0.24242425,6.0822815e-05,-0.0005387943,-1.3028905,-26.186647,0.970208,0.0005422165
2.5252526,0.28282827,3.678724e-05,-0.00060477294,-1.5014839,-28.823559,0.8027956,0.00060589076
2.5252526,0.32323232,1.1369586e-05,-0.0006769411,-1.632159,-31.434275,0.62975764,0.0006770366
2.5252526,0.36363637,-1.5296042e-05,-0.00075545534,-1.7020519,-34.022877,0.45392305,0.0007556102
2.5252526,0.4040404,-4.3470412e-05,-0.00084016845,-1.718228,-36.593765,0.27830738,0.00084129226
2.5252526,0.44444445,-7.286668e-05,-0.00093122385,-1.6880888,-39.151237,0.10568586,0.0009340703
2.5252526,0.4848485,-0.00010351464,-0.0010286085,-1.6186895,-41.69993,-0.061199985,0.001033804
2.5252526,0.5252525,-0.00013549626,-0.0011322498,-1.5177239,-44.244267,-0.21963273,0.0011403285
2.5252526,0.56565654,-0.00016852841,-0.0012423061,-1.3915521,-46.788403,-0.36681977,0.0012536851
2.5252526,0.6060606,-0.00020257756,-0.0013587531,-1.2474494,-49.33599,-0.50015914,0.0013737713
2.5252526,0.64646465,-0.00023758039,-0.0014815722,-1.0919561,-51.891582,-0.6176173,0.0015005001
2.5252526,0.68686867,-0.00027332082,-0.0016108602,-0.9311099,-54.458355,-0.71667826,0.0016338835
2.5252526,0.72727275,-0.00030973926,-0.001746567,-0.77151793,-57.040253,-0.7956414,0.0017738192
2.5252526,0.7676768,-0.00034648553,-0.0018888637,-0.6178765,-59.640007,-0.8527915,0.0019203798
2.5252526,0.8080808,-0.0003835708,-0.0020376798,-0.47632447,-62.261078,-0.8866536,0.002073467
2.5252526,0.8484849,-0.0004207529,-0.0021930952,-0.3510224,-64.90578,-0.89616245,0.002233092
2.5252526,0.8888889,-0.0004577972,-0.0023551546,-0.24687997,-67.57702,-0.88053775,0.0023992355
2.5252526,0.9292929,-0.0004945211,-0.0025238898,-0.16680524,-70.276184,-0.8394127,0.0025718808
2.5252526,0.969697,-0.00053068623,-0.0026993882,-0.114693716,-73.00573,-0.7723789,0.0027510587
2.5252526,1.010101,-0.0005661361,-0.0028815996,-0.09334941,-75.76647,-0.679724,0.0029366864
2.5252526,1.050505,-0.00060068816,-0.003070591,-0.1048208,-78.55975,-0.5620657,0.0031287945
2.5252526,1.0909091,-0.0006341599,-0.003266519,-0.15221079,-81.38756,-0.4203417,0.0033275073
2.5252526,1.1313131,-0.0006661564,-0.0034692474,-0.23566379,-84.249985,-0.25541702,0.0035326253
2.5252526,1.1717172,-0.00069672614,-0.0036790464,-0.35688233,-87.14776,-0.06915608,0.0037444371
2.5252526,1.2121212,-0.0007255338,-0.0038957708,-0.51656497,-90.08149,0.13708441,0.003962755
2.5252526,1.2525252,-0.0007524602,-0.004119521,-0.7147587,-93.05127,0.36103708,0.0041876785
2.5252526,1.2929293,-0.0007775016,-0.004350491,-0.95258176,-96.05836,0.59987295,0.004419421
2.5252526,1.3333334,-0.00080029294,-0.004588455,-1.2287145,-99.10156,0.85192376,0.0046577235
2.5252526,1.3737373,-0.0008209385,-0.0048337243,-1.5434052,-102.18251,1.1137294,0.004902941
2.5252526,1.4141414,-0.0008391775,-0.0050862115,-1.8960025,-105.30036,1.3829631,0.0051549748
2.5252526,1.4545455,-0.0008550249,-0.005345991,-2.2859592,-108.45599,1.6563286,0.0054139346
2.5252526,1.4949495,-0.0008683242,-0.0056131147,-2.7124858,-111.64967,1.9305807,0.0056798807
2.5252526,1.5353535,-0.0008791797,-0.005887728,-3.1748137,-114.88165,2.2024822,0.005953008
2.5252526,1.5757576,-0.000887651,-0.006169645,-3.6722407,-118.151855,2.468777,0.006233173
2.5252526,1.6161616,-0.0008935407,-0.006459225,-4.2046328,-121.46218,2.7262814,0.0065207365
2.5252526,1.6565657,-0.0008970201,-0.006756261,-4.7703705,-124.81169,2.971417,0.006815549
2.5252526,1.6969697,-0.00089805946,-0.007061042,-5.369294,-128.20213,3.201519,0.007117923
2.5252526,1.7373737,-0.00089688227,-0.007373523,-6.0019593,-131.63353,3.413127,0.007427869
2.5252526,1.7777778,-0.00089355186,-0.00769376,-6.667112,-135.10695,3.6031332,0.007745475
2.5252526,1.8181819,-0.00088812783,-0.008021878,-7.364254,-138.62323,3.7694063,0.008070892
2.5252526,1.8585858,-0.0008809194,-0.0083579365,-8.094728,-142.18298,3.9087286,0.008404233
2.5252526,1.8989899,-0.00087192655,-0.008701932,-8.85724,-145.78673,4.019195,0.0087455055
2.5252526,1.939394,-0.0008613616,-0.009054072,-9.652795,-149.43608,4.0985866,0.009094953
2.5252526,1.979798,-0.0008494966,-0.009414287,-10.481523,-153.13072,4.1451573,0.009452537
2.5252526,2.020202,-0.0008364357,-0.009782737,-11.344133,-156.87242,4.1579103,0.00981843
2.5252526,2.060606,-0.0008225441,-0.010159519,-12.241601,-160.66255,4.135819,0.010192762
2.5252526,2.10101,-0.0008079447,-0.010544691,-13.174558,-164.5003,4.078564,0.010575599
2.5252526,2.1414142,-0.0007928945,-0.010938309,-14.144891,-168.38844,3.9863796,0.010967009
2.5252526,2.1818182,-0.0007776618,-0.011340452,-15.153762,-172.3283,3.8597994,0.011367084
2.5252526,2.2222223,-0.00076227635,-0.011751264,-16.202976,-176.32156,3.7007232,0.011775962
2.5252526,2.2626262,-0.00074733794,-0.012170851,-17.295647,-180.3705,3.5103197,0.012193775
2.5252526,2.3030303,-0.00073284656,-0.012599254,-18.433666,-184.47754,3.2918313,0.01262055
2.5252526,2.3434343,-0.00071896985,-0.013036514,-19.620718,-188.64603,3.0491428,0.013056324
2.5252526,2.3838384,-0.000706058,-0.0134829,-20.861643,-192.88156,2.7855697,0.013501375
2.5252526,2.4242425,-0.00069420785,-0.013938326,-22.160234,-197.18713,2.5073497,0.013955603
2.5252526,2.4646466,-0.00068364665,-0.014403073,-23.522247,-201.56944,2.2194796,0.014419288
2.5252526,2.5050504,-0.000674475,-0.0148770735,-24.956055,-206.03731,1.9287511,0.014892355
2.5252526,2.5454545,-0.0006668046,-0.015360739,-26.466698,-210.59692,1.643111,0.015375205
2.5252526,2.5858586,-0.0006608069,-0.015853979,-28.065022,-215.25903,1.3702854,0.015867746
2.5252526,2.6262627,-0.00065650046,-0.016357053,-29.75996,-220.03337,1.1186671,0.016370222
2.5252526,2.6666667,-0.00065388903,-0.016870212,-31.564157,-224.93336,0.8979168,0.01688288
2.5252526,2.7070708,-0.0006530471,-0.01739353,-33.489494,-229.97081,0.7174533,0.017405784
2.5252526,2.7474747,-0.00065388903,-0.017927311,-35.550053,-235.16107,0.58725977,0.017939232
2.5252526,2.7878788,-0.0006564148,-0.018471744,-37.761845,-240.51793,0.5161748,0.018483404
2.5252526,2.8282828,-0.00066044554,-0.019027203,-40.141914,-246.05849,0.5140686,0.019038662
2.5252526,2.868687,-0.00066594407,-0.01959376,-42.709293,-251.79807,0.58935523,0.019605074
2.5252526,2.909091,-0.0006727837,-0.020171963,-45.48447,-257.75336,0.7497075,0.02018318
2.5252526,2.9494948,-0.00068070367,-0.020761963,-48.48812,-263.93954,1.0010571,0.020773118
2.5252526,2.989899,-0.0006897189,-0.021364082,-51.74582,-270.37308,1.3485624,0.021375213
2.5252526,3.030303,-0.0006994046,-0.0219788,-55.283043,-277.06857,1.7945333,0.021989925
2.5252526,3.070707,-0.0007097572,-0.02260638,-59.12874,-284.03925,2.3380673,0.022617519
2.5252526,3.1111112,-0.0007205792,-0.023247223,-63.312977,-291.29694,2.9764352,0.023258388
2.5252526,3.1515152,-0.0007318817,-0.023901496,-67.871025,-298.85114,3.702319,0.023912698
2.5252526,3.191919,-0.00074343383,-0.024569713,-72.84162,-306.71088,4.5063796,0.024580957
2.5252526,3.2323232,-0.0007554218,-0.025252212,-78.2694,-314.88226,5.372757,0.025263509
2.5252526,3.2727273,-0.00076789036,-0.025949053,-84.20515,-323.36978,6.283032,0.025960412
2.5252526,3.3131313,-0.00078117475,-0.026660554,-90.7067,-332.17484,7.2127995,0.026671996
2.5252526,3.3535354,-0.00079539046,-0.02738693,-97.84375,-341.30188,8.135185,0.027398478
2.5252526,3.3939395,-0.00081138685,-0.028128225,-105.69745,-350.7511,9.016617,0.028139925
2.5252526,3.4343433,-0.0008295849,-0.028884318,-114.3629,-360.52435,9.821248,0.028896227
2.5252526,3.4747474,-0.0008510873,-0.029655278,-123.95677,-370.62927,10.509886,0.029667487
2.5252526,3.5151515,-0.00087681785,-0.030440725,-134.61353,-381.0735,11.039031,0.03045335
2.5252526,3.5555556,-0.00090814754,-0.03124046,-146.49379,-391.8717,11.365571,0.031253655
2.5252526,3.5959597,-0.00094661117,-0.032053903,-159.78806,-403.04672,11.4439945,0.032067876
2.5252526,3.6363637,-0.000993859,-0.03288041,-174.72044,-414.6334,11.233588,0.032895427
2.5252526,3.6767676,-0.0010518283,-0.03371919,-191.5494,-426.6778,10.69447,0.033735592
2.5252526,3.7171717,-0.0011225417,-0.034569338,-210.57764,-439.24417,9.792201,0.03458756
2.5252526,3.7575758,-0.0012081042,-0.035429776,-232.14851,-452.41156,8.501828,0.03545037
2.5252526,3.7979798,-0.0013107397,-0.036299028,-256.65414,-466.2831,6.80862,0.036322683
2.5252526,3.838384,-0.001432687,-0.03717589,-284.53445,-480.98563,4.7110915,0.037203487
2.5252526,3.878788,-0.0015759282,-0.038058642,-316.27448,-496.66687,2.222064,0.038091257
2.5252526,3.9191918,-0.0017422177,-0.038945604,-352.4091,-513.50305,-0.62583804,0.038984552
2.5252526,3.959596,-0.0019331239,-0.039834984,-393.51562,-531.6963,-3.7798836,0.039881863
2.5252526,4.0,-0.0021496676,-0.040724665,-440.20218,-551.4688,-7.1663446,0.04078136
2.5757575,0.04040404,0.00018185005,-0.00026546046,0.69221765,-12.458872,2.049695,0.0003217743
2.5757575,0.08080808,0.0001653023,-0.00029988028,0.0850288,-15.279229,1.9885595,0.0003424223
2.5757575,0.121212125,0.00014810264,-0.0003405679,-0.42163473,-18.053558,1.9081725,0.000371377
2.5757575,0.16161616,0.00013007969,-0.00038750842,-0.8342101,-20.785675,1.8108451,0.0004087585
2.5757575,0.2020202,0.00011106953,-0.00044073164,-1.1587998,-23.479359,1.698897,0.00045451164
2.5757575,0.24242425,9.104982e-05,-0.0005001817,-1.4014603,-26.138258,1.5744774,0.0005084012
2.5757575,0.28282827,6.987527e-05,-0.00056592,-1.5694903,-28.766886,1.4401305,0.00057021755
2.5757575,0.32323232,4.756078e-05,-0.0006379038,-1.669164,-31.369404,1.2983662,0.00063967437
2.5757575,0.36363637,2.4080276e-05,-0.0007161889,-1.7078766,-33.95009,1.1521894,0.00071659364
2.5757575,0.4040404,-6.891787e-07,-0.0008007381,-1.6928859,-36.513496,1.0042177,0.0008007384
2.5757575,0.44444445,-2.6598573e-05,-0.0008916259,-1.631244,-39.06369,0.8573263,0.0008920225
2.5757575,0.4848485,-5.3677708e-05,-0.0009888466,-1.530191,-41.605583,0.71434504,0.0009903024
2.5757575,0.5252525,-8.190051e-05,-0.0010924656,-1.397318,-44.143387,0.5780666,0.0010955313
2.5757575,0.56565654,-0.000111136585,-0.0012023542,-1.2392774,-46.68112,0.45112908,0.0012074796
2.5757575,0.6060606,-0.00014144555,-0.0013186131,-1.063328,-49.223186,0.33607805,0.0013261776
2.5757575,0.64646465,-0.00017255172,-0.0014414117,-0.87580144,-51.77362,0.23537968,0.001451703
2.5757575,0.68686867,-0.00020438433,-0.0015706234,-0.68321574,-54.335766,0.15143709,0.0015838657
2.5757575,0.72727275,-0.00023680925,-0.0017063282,-0.49191293,-56.913593,0.08603943,0.0017226824
2.5757575,0.7676768,-0.00026968867,-0.0018485971,-0.3074607,-59.51036,0.04110759,0.0018681657
2.5757575,0.8080808,-0.0003028214,-0.0019974709,-0.1350205,-62.12893,0.01831795,0.0020202945
2.5757575,0.8484849,-0.0003361404,-0.0021529365,0.020152163,-64.77192,0.018687345,0.0021790194
2.5757575,0.8888889,-0.00036930665,-0.0023150519,0.1543197,-67.4421,0.043279637,0.0023443233
2.5757575,0.9292929,-0.00040218607,-0.0024838895,0.26248187,-70.141075,0.09295853,0.0025162394
2.5757575,0.969697,-0.000434611,-0.0026594829,0.3423215,-72.87124,0.16783148,0.002694761
2.5757575,1.010101,-0.0004662983,-0.0028418377,0.3903831,-75.63354,0.26779646,0.0028798396
2.5757575,1.050505,-0.00049719587,-0.003031101,0.40387273,-78.43,0.392805,0.0030716083
2.5757575,1.0909091,-0.00052694604,-0.0032272264,0.38123557,-81.2609,0.54201096,0.0032699637
2.5757575,1.1313131,-0.0005553737,-0.0034303106,0.32055408,-84.12775,0.7147776,0.0034749778
2.5757575,1.1717172,-0.000582505,-0.003640337,0.22072008,-87.03037,0.9092753,0.003686647
2.5757575,1.2121212,-0.00060794875,-0.003857443,0.08140454,-89.969536,1.124529,0.0039050567
2.5757575,1.2525252,-0.0006316155,-0.004081607,-0.09818849,-92.94564,1.3582714,0.004130188
2.5757575,1.2929293,-0.00065337494,-0.0043128785,-0.3179616,-95.95884,1.6089009,0.0043620886
2.5757575,1.3333334,-0.000673037,-0.0045513175,-0.5778476,-99.00906,1.8738014,0.0046008117
2.5757575,1.3737373,-0.00069049373,-0.004797075,-0.8767148,-102.09658,2.1503613,0.004846515
2.5757575,1.4141414,-0.00070565566,-0.0050500315,-1.2146943,-105.221344,2.4363024,0.005099095
2.5757575,1.4545455,-0.00071851537,-0.005310418,-1.5916716,-108.38471,2.7284975,0.0053588063
2.5757575,1.4949495,-0.00072897226,-0.00557808,-2.0054374,-111.58487,3.0242445,0.0056255115
2.5757575,1.5353535,-0.0007370077,-0.0058531966,-2.4562402,-114.82324,3.3205957,0.0058994144
2.5757575,1.5757576,-0.00074261054,-0.0061358176,-2.942733,-118.10007,3.6141477,0.006180593
2.5757575,1.6161616,-0.00074585155,-0.00642599,-3.4648087,-121.416084,3.9024181,0.0064691296
2.5757575,1.6565657,-0.0007465109,-0.0067238174,-4.020264,-124.77082,4.1823764,0.0067651314
2.5757575,1.6969697,-0.00074502453,-0.007029243,-4.6101675,-128.16563,4.4507985,0.007068615
2.5757575,1.7373737,-0.0007412657,-0.0073424038,-5.233363,-131.60114,4.705082,0.007379727
2.5757575,1.7777778,-0.0007354468,-0.0076633766,-5.8896437,-135.0776,4.942301,0.007698586
2.5757575,1.8181819,-0.00072750077,-0.007992292,-6.5789475,-138.5967,5.160217,0.008025334
2.5757575,1.8585858,-0.0007177703,-0.008329095,-7.3018193,-142.15804,5.3564367,0.008359966
2.5757575,1.8989899,-0.0007063523,-0.008673893,-8.058299,-145.76346,5.5291386,0.008702606
2.5757575,1.939394,-0.0006934218,-0.009026732,-8.848341,-149.41254,5.6761656,0.009053327
2.5757575,1.979798,-0.00067922845,-0.00938778,-9.673589,-153.10701,5.7966127,0.00941232
2.5757575,2.020202,-0.00066396594,-0.009757027,-10.534044,-156.84668,5.888999,0.009779592
2.5757575,2.060606,-0.000647787,-0.010134626,-11.43166,-160.63354,5.9527793,0.010155308
2.5757575,2.10101,-0.0006310679,-0.010520477,-12.366954,-164.46658,5.987981,0.010539387
2.5757575,2.1414142,-0.00061384216,-0.010914963,-13.34317,-168.34863,5.994713,0.01093221
2.5757575,2.1818182,-0.00059650093,-0.011317836,-14.360584,-172.27905,5.9739275,0.011333544
2.5757575,2.2222223,-0.00057922676,-0.011729373,-15.422796,-176.26,5.9271607,0.011743667
2.5757575,2.2626262,-0.00056229904,-0.012149533,-16.53263,-180.2926,5.856001,0.012162539
2.5757575,2.3030303,-0.00054590777,-0.0125785135,-17.692646,-184.37903,5.7639127,0.012590354
2.5757575,2.3434343,-0.0005302988,-0.013016263,-18.90762,-188.52202,5.6541686,0.013027061
2.5757575,2.3838384,-0.0005157143,-0.013463045,-20.181696,-192.72455,5.530557,0.013472918
2.5757575,2.4242425,-0.00050226226,-0.013918726,-21.519548,-196.98941,5.398768,0.013927785
2.5757575,2.4646466,-0.0004901998,-0.014383521,-22.92838,-201.32338,5.2644315,0.014391871
2.5757575,2.5050504,-0.00047963113,-0.014857594,-24.41412,-205.73132,5.1337547,0.014865334
2.5757575,2.5454545,-0.0004707314,-0.015340887,-25.98572,-210.22086,5.0147476,0.015348108
2.5757575,2.5858586,-0.00046368316,-0.01583353,-27.652622,-214.79962,4.9149065,0.015840318
2.5757575,2.6262627,-0.0004584603,-0.016335838,-29.424187,-219.47852,4.8430367,0.01634227
2.5757575,2.6666667,-0.00045516714,-0.016847752,-31.313889,-224.26794,4.8078384,0.0168539
2.5757575,2.7070708,-0.00045382231,-0.017369542,-33.333817,-229.18062,4.820234,0.01737547
2.5757575,2.7474747,-0.0004544221,-0.017901286,-35.498493,-234.23003,4.8885245,0.017907053
2.5757575,2.7878788,-0.00045694783,-0.018443286,-37.823868,-239.43132,5.0241666,0.018448945
2.5757575,2.8282828,-0.00046129152,-0.01899568,-40.32859,-244.80032,5.2357774,0.01900128
2.5757575,2.868687,-0.00046743825,-0.01955875,-43.02943,-250.35367,5.531465,0.019564336
2.5757575,2.909091,-0.00047535077,-0.020132676,-45.950623,-256.10956,5.9208794,0.020138286
2.5757575,2.9494948,-0.0004847683,-0.020717781,-49.11046,-262.08487,6.4107375,0.020723453
2.5757575,2.989899,-0.000495594,-0.021314431,-52.53535,-268.29745,7.005294,0.021320192
2.5757575,3.030303,-0.0005077161,-0.02192286,-56.248753,-274.7641,7.7077727,0.021928739
2.5757575,3.070707,-0.0005211793,-0.022543393,-60.279243,-281.5006,8.518732,0.022549417
2.5757575,3.1111112,-0.00053578615,-0.02317635,-64.655785,-288.52145,9.435025,0.023182543
2.5757575,3.1515152,-0.00055148825,-0.023822092,-69.41184,-295.84097,10.4506,0.023828475
2.5757575,3.191919,-0.00056854635,-0.024480961,-74.58131,-303.47028,11.5541315,0.024487562
2.5757575,3.2323232,-0.00058682635,-0.025153182,-80.20502,-311.41882,12.731337,0.025160026
2.5757575,3.2727273,-0.00060679764,-0.025839157,-86.32543,-319.6919,13.961639,0.025846282
2.5757575,3.3131313,-0.00062870607,-0.026539125,-92.993576,-328.2958,15.22029,0.026546571
2.5757575,3.3535354,-0.0006532259,-0.027253285,-100.27142,-337.23486,16.47564,0.027261114
2.5757575,3.3939395,-0.0006810613,-0.02798172,-108.22521,-346.51056,17.692467,0.027990008
2.5757575,3.4343433,-0.00071325153,-0.028724648,-116.9373,-356.12366,18.829548,0.028733501
2.5757575,3.4747474,-0.0007507317,-0.029481955,-126.50654,-366.08002,19.842125,0.029491512
2.5757575,3.5151515,-0.00079538673,-0.030253466,-137.04642,-376.38055,20.677704,0.030263921
2.5757575,3.5555556,-0.0008487068,-0.031039052,-148.69897,-387.03763,21.284855,0.031050652
2.5757575,3.5959597,-0.00091272965,-0.03183826,-161.6288,-398.06638,21.608246,0.03185134
2.5757575,3.6363637,-0.0009897612,-0.032650717,-176.03308,-409.4907,21.59163,0.032665715
2.5757575,3.6767676,-0.0010825433,-0.03347569,-192.14418,-421.34622,21.181414,0.03349319
2.5757575,3.7171717,-0.0011938252,-0.034312278,-210.23637,-433.68326,20.329254,0.034333043
2.5757575,3.7575758,-0.0013265796,-0.03515969,-230.62677,-446.5717,18.990063,0.035184707
2.5757575,3.7979798,-0.0014841817,-0.036016617,-253.68234,-460.0969,17.131203,0.036047183
2.5757575,3.838384,-0.0016699247,-0.036881793,-279.8218,-474.3737,14.730679,0.03691958
2.5757575,3.878788,-0.0018870048,-0.03775373,-309.51587,-489.53827,11.782855,0.03780086
2.5757575,3.9191918,-0.0021387972,-0.03863079,-343.29,-505.7559,8.300771,0.038689952
2.5757575,3.959596,-0.0024282932,-0.03951123,-381.71997,-523.22003,4.317873,0.039585777
2.5757575,4.0,-0.0027578957,-0.04039315,-425.43466,-542.1558,-0.10401083,0.040487193
2.6262627,0.04040404,0.00019996986,-0.00022667274,0.45990446,-12.435347,2.441868,0.00030227218
2.6262627,0.08080808,0.00018532574,-0.00026074983,-0.11683201,-15.243805,2.4201584,0.00031990017
2.6262627,0.121212125,0.00017021969,-0.00030115992,-0.5938021,-18.006895,2.378255,0.00034593645
2.6262627,0.16161616,0.0001545474,-0.0003477875,-0.9770055,-20.728067,2.3183243,0.00038057988
2.6262627,0.2020202,0.00013816729,-0.00040071085,-1.2720201,-23.411058,2.2420058,0.00042386248
2.6262627,0.24242425,0.000120818615,-0.0004598908,-1.4858181,-26.060274,2.151828,0.00047549626
2.6262627,0.28282827,0.0001026839,-0.0005253758,-1.6239408,-28.67885,2.050305,0.0005353165
2.6262627,0.32323232,8.3524734e-05,-0.00059704855,-1.6943433,-31.271841,1.9395939,0.0006028626
2.6262627,0.36363637,6.3281506e-05,-0.000675112,-1.7033951,-33.843452,1.8228155,0.00067807134
2.6262627,0.4040404,4.2133033e-05,-0.00075938925,-1.6583558,-36.397778,1.7024223,0.0007605572
2.6262627,0.44444445,1.9706786e-05,-0.00085002184,-1.5669944,-38.939976,1.5814314,0.00085025025
2.6262627,0.4848485,-3.669411e-06,-0.00094710477,-1.4353942,-41.473583,1.4624286,0.00094711187
2.6262627,0.5252525,-2.8133392e-05,-0.0010503624,-1.2720999,-44.003445,1.3483138,0.0010507391
2.6262627,0.56565654,-5.3521246e-05,-0.0011600908,-1.0835944,-46.534035,1.2419039,0.0011613248
2.6262627,0.6060606,-7.9892576e-05,-0.0012762267,-0.8771161,-49.069435,1.1457014,0.0012787249
2.6262627,0.64646465,-0.000107031316,-0.0013987962,-0.6589096,-51.613274,1.0621886,0.0014028851
2.6262627,0.68686867,-0.00013480335,-0.0015278384,-0.43554834,-54.169514,0.9938868,0.0015337738
2.6262627,0.72727275,-0.0001632385,-0.0016634874,-0.21380904,-56.74244,0.94278544,0.0016714776
2.6262627,0.7676768,-0.00019215792,-0.0018056352,0.00091677066,-59.33439,0.91077304,0.0018158312
2.6262627,0.8080808,-0.00022130087,-0.0019543804,0.20311339,-61.94896,0.899714,0.0019668697
2.6262627,0.8484849,-0.0002505444,-0.0021097604,0.3875522,-64.58892,0.9109329,0.002124585
2.6262627,0.8888889,-0.00027975813,-0.0022718199,0.55010265,-67.25632,0.9455029,0.0022889802
2.6262627,0.9292929,-0.0003087856,-0.002440691,0.68650335,-69.95398,1.0042729,0.0024601466
2.6262627,0.969697,-0.00033726916,-0.0026161894,0.7929965,-72.6827,1.0880893,0.0026378396
2.6262627,1.010101,-0.00036518276,-0.002798669,0.8666572,-75.44509,1.1965839,0.0028223938
2.6262627,1.050505,-0.00039228424,-0.0029879455,0.90467805,-78.24196,1.330251,0.0030135866
2.6262627,1.0909091,-0.00041836873,-0.0031841658,0.90544367,-81.07367,1.4881613,0.003211533
2.6262627,1.1313131,-0.00044332072,-0.00338725,0.8669393,-83.94152,1.6697612,0.0034161378
2.6262627,1.1717172,-0.00046681985,-0.0035974812,0.7877712,-86.84636,1.8740163,0.0036276425
2.6262627,1.2121212,-0.0004888363,-0.003814742,0.66722435,-89.78811,2.0995996,0.0038459352
2.6262627,1.2525252,-0.0005090423,-0.0040390827,0.5052649,-92.766624,2.3449824,0.0040710336
2.6262627,1.2929293,-0.0005274676,-0.004270602,0.30147985,-95.78245,2.6083648,0.0043030526
2.6262627,1.3333334,-0.0005438626,-0.004509233,0.056285687,-98.8352,2.8875577,0.0045419126
2.6262627,1.3737373,-0.0005581826,-0.004755281,-0.229871,-101.92512,3.1801827,0.004787929
2.6262627,1.4141414,-0.00057033077,-0.0050084367,-0.55675846,-105.05186,3.4842713,0.005040805
2.6262627,1.4545455,-0.0005801283,-0.0052690506,-0.9228388,-108.21582,3.7969027,0.0053008907
2.6262627,1.4949495,-0.0005876459,-0.0055370573,-1.3277996,-111.416374,4.115466,0.005568153
2.6262627,1.5353535,-0.0005928315,-0.005812485,-1.7704487,-114.65405,4.4373527,0.0058426387
2.6262627,1.5757576,-0.00059557334,-0.0060954243,-2.2502456,-117.92909,4.7598224,0.0061244513
2.6262627,1.6161616,-0.0005960092,-0.0063859355,-2.765551,-121.24159,5.0798097,0.0064136884
2.6262627,1.6565657,-0.00059407577,-0.006683985,-3.3165202,-124.59167,5.395176,0.0067103337
2.6262627,1.6969697,-0.0005898811,-0.0069897845,-3.901514,-127.98017,5.702717,0.007014631
2.6262627,1.7373737,-0.00058346614,-0.0073032286,-4.5216336,-131.40779,6.000298,0.0073264986
2.6262627,1.7777778,-0.0005750172,-0.007624522,-5.175523,-134.875,6.2852826,0.007646174
2.6262627,1.8181819,-0.0005646348,-0.00795364,-5.8632355,-138.3822,6.5556397,0.007973657
2.6262627,1.8585858,-0.0005524121,-0.008290619,-6.5852337,-141.93005,6.808996,0.008309002
2.6262627,1.8989899,-0.0005386658,-0.008635581,-7.3419223,-145.51976,7.04406,0.008652365
2.6262627,1.939394,-0.0005233921,-0.008988546,-8.133602,-149.15154,7.2587366,0.0090037715
2.6262627,1.979798,-0.0005068816,-0.0093497075,-8.961833,-152.82626,7.45195,0.009363437
2.6262627,2.020202,-0.0004893206,-0.009719053,-9.827767,-156.54526,7.623268,0.0097313635
2.6262627,2.060606,-0.0004709512,-0.010096559,-10.732711,-160.3076,7.772528,0.010107537
2.6262627,2.10101,-0.00045201927,-0.010482406,-11.678106,-164.11453,7.898662,0.010492148
2.6262627,2.1414142,-0.00043276325,-0.010876624,-12.666808,-167.96669,8.0027275,0.010885229
2.6262627,2.1818182,-0.0004134141,-0.011279264,-13.700248,-171.86436,8.085727,0.011286838
2.6262627,2.2222223,-0.000394281,-0.011690378,-14.783454,-175.80937,8.149171,0.011697025
2.6262627,2.2626262,-0.00037552416,-0.012110006,-15.916979,-179.8004,8.195508,0.012115828
2.6262627,2.3030303,-0.00035740435,-0.012538323,-17.106161,-183.8407,8.226602,0.012543416
2.6262627,2.3434343,-0.00034012645,-0.012975382,-18.35483,-187.93198,8.246696,0.012979839
2.6262627,2.3838384,-0.00032397732,-0.013421137,-19.668545,-192.07472,8.259651,0.013425047
2.6262627,2.4242425,-0.00030921772,-0.013875643,-21.05225,-196.27312,8.270274,0.013879088
2.6262627,2.4646466,-0.00029580668,-0.01433914,-22.51245,-200.53026,8.284791,0.014342191
2.6262627,2.5050504,-0.0002842322,-0.014811456,-24.057177,-204.85107,8.309045,0.014814183
2.6262627,2.5454545,-0.00027444214,-0.015292861,-25.694725,-209.24213,8.350283,0.015295323
2.6262627,2.5858586,-0.00026663393,-0.015783325,-27.433685,-213.70876,8.416457,0.015785577
2.6262627,2.6262627,-0.0002608411,-0.016282909,-29.286127,-218.26082,8.516084,0.016284999
2.6262627,2.6666667,-0.00025733188,-0.016791794,-31.26321,-222.90794,8.658409,0.016793767
2.6262627,2.7070708,-0.00025591627,-0.017310094,-33.37843,-227.661,8.852773,0.017311985
2.6262627,2.7474747,-0.00025678053,-0.017837796,-35.64754,-232.53346,9.10884,0.017839644
2.6262627,2.7878788,-0.0002599731,-0.018375099,-38.08438,-237.53786,9.436541,0.018376937
2.6262627,2.8282828,-0.00026525185,-0.018922307,-40.70897,-242.69318,9.846018,0.018924166
2.6262627,2.868687,-0.0002727285,-0.019479435,-43.538868,-248.01347,10.345676,0.019481344
2.6262627,2.909091,-0.00028238073,-0.020046797,-46.596783,-253.51816,10.944594,0.020048786
2.6262627,2.9494948,-0.00029405206,-0.020624463,-49.90198,-259.22366,11.650062,0.020626558
2.6262627,2.989899,-0.00030754134,-0.021212868,-53.4793,-265.15094,12.467523,0.021215098
2.6262627,3.030303,-0.0003230758,-0.021812122,-57.35381,-271.31818,13.400471,0.021814514
2.6262627,3.070707,-0.0003404729,-0.022422519,-61.550247,-277.74194,14.44937,0.022425104
2.6262627,3.1111112,-0.00035973266,-0.02304447,-66.09855,-284.44153,15.6128,0.023047278
2.6262627,3.1515152,-0.0003809482,-0.02367825,-71.026855,-291.43158,16.88371,0.023681315
2.6262627,3.191919,-0.00040422007,-0.024324045,-76.36824,-298.72647,18.252604,0.024327403
2.6262627,3.2323232,-0.00042970479,-0.024982389,-82.15774,-306.33914,19.703941,0.024986085
2.6262627,3.2727273,-0.00045806542,-0.025653303,-88.43317,-314.279,21.217756,0.025657391
2.6262627,3.3131313,-0.0004896112,-0.026337292,-95.23886,-322.55374,22.767313,0.026341842
2.6262627,3.3535354,-0.00052507967,-0.027034514,-102.622475,-331.1673,24.320328,0.027039614
2.6262627,3.3939395,-0.0005652942,-0.02774528,-110.64213,-340.12476,25.839258,0.027751038
2.6262627,3.4343433,-0.00061186776,-0.028469522,-119.365,-349.42593,27.277626,0.028476097
2.6262627,3.4747474,-0.00066572055,-0.029207475,-128.87071,-359.07373,28.587063,0.029215062
2.6262627,3.5151515,-0.00072899833,-0.029959079,-139.25572,-369.0691,29.708872,0.029967947
2.6262627,3.5555556,-0.0008038096,-0.030724123,-150.63402,-379.4149,30.583084,0.030734636
2.6262627,3.5959597,-0.00089262426,-0.03150247,-163.14662,-390.12134,31.14396,0.031515114
2.6262627,3.6363637,-0.000998091,-0.032293785,-176.95934,-401.2031,31.325783,0.032309204
2.6262627,3.6767676,-0.0011236295,-0.03309736,-192.27214,-412.6823,31.060003,0.033116426
2.6262627,3.7171717,-0.0012727082,-0.033912692,-209.3246,-424.59818,30.280443,0.033936564
2.6262627,3.7575758,-0.0014494881,-0.03473879,-228.3986,-437.00082,28.927485,0.034769017
2.6262627,3.7979798,-0.0016577654,-0.035574734,-249.82408,-449.96344,26.947916,0.03561334
2.6262627,3.838384,-0.0019022152,-0.0364194,-273.98813,-463.58054,24.299265,0.036469042
2.6262627,3.878788,-0.002187457,-0.037271224,-301.32584,-477.9699,20.953356,0.03733536
2.6262627,3.9191918,-0.0025178082,-0.038128935,-332.33957,-493.2822,16.904268,0.038211975
2.6262627,3.959596,-0.0028980412,-0.03899067,-367.5898,-509.6974,12.162797,0.03909822
2.6262627,4.0,-0.003332112,-0.039854687,-407.68848,-527.4247,6.7708044,0.039993737
2.6767678,0.04040404,0.00021734461,-0.00018681772,0.2523151,-12.390694,2.8094103,0.00028659997
2.6767678,0.08080808,0.0002046898,-0.00022057258,-0.2952371,-15.185493,2.8265295,0.00030091556
2.6767678,0.121212125,0.00019177794,-0.0002606269,-0.74369156,-17.935152,2.822446,0.00032358177
2.6767678,0.16161616,0.00017850474,-0.00030687638,-1.0991434,-20.643984,2.7991412,0.00035501696
2.6767678,0.2020202,0.00016477332,-0.00035950541,-1.3663459,-23.314993,2.758213,0.0003954673
2.6767678,0.24242425,0.00015034899,-0.0004183445,-1.5518769,-25.952217,2.7019541,0.00044454128
2.6767678,0.28282827,0.00013523921,-0.0004834663,-1.662499,-28.559618,2.6327653,0.0005020252
2.6767678,0.32323232,0.000119291246,-0.0005548615,-1.7054906,-31.141926,2.5531023,0.00056754006
2.6767678,0.36363637,0.00010249391,-0.000632558,-1.6868379,-33.703014,2.4655745,0.0006408078
2.6767678,0.4040404,8.477643e-05,-0.0007165503,-1.6136926,-36.247337,2.3726697,0.0007215479
2.6767678,0.44444445,6.603822e-05,-0.00080690905,-1.4941581,-38.77953,2.2776225,0.0008096068
2.6767678,0.4848485,4.6465546e-05,-0.00090353005,-1.3343312,-41.303608,2.1828458,0.000904724
2.6767678,0.5252525,2.5924295e-05,-0.0010065772,-1.1422777,-43.824585,2.0912528,0.0010069109
2.6767678,0.56565654,4.388392e-06,-0.0011159685,-0.92498803,-46.34637,2.005725,0.0011159771
2.6767678,0.6060606,-1.7914921e-05,-0.0012317952,-0.6892839,-48.87334,1.9287969,0.0012319254
2.6767678,0.64646465,-4.1022897e-05,-0.0013541151,-0.44209835,-51.409496,1.8631197,0.0013547363
2.6767678,0.68686867,-6.483123e-05,-0.0014829542,-0.19005865,-53.958836,1.8110594,0.0014843707
2.6767678,0.72727275,-8.907914e-05,-0.0016182419,0.06070499,-56.524506,1.7750587,0.0016206917
2.6767678,0.7676768,-0.00011388585,-0.0017601755,0.30416638,-59.110382,1.756933,0.0017638559
2.6767678,0.8080808,-0.00013896823,-0.0019087084,0.5346049,-61.719593,1.7586308,0.0019137607
2.6767678,0.8484849,-0.00016418472,-0.0020639226,0.74717814,-64.35432,1.7815708,0.0020704425
2.6767678,0.8888889,-0.00018930808,-0.0022258125,0.9371478,-67.01739,1.8273436,0.0022338484
2.6767678,0.9292929,-0.00021428242,-0.0023944173,1.099987,-69.71105,1.8966663,0.0024039864
2.6767678,0.969697,-0.00023881719,-0.002569871,1.2320222,-72.4371,1.990377,0.0025809438
2.6767678,1.010101,-0.0002628751,-0.0027521476,1.330429,-75.196526,2.1089835,0.0027646734
2.6767678,1.050505,-0.00028619915,-0.002941331,1.3919097,-77.99111,2.2522202,0.002955222
2.6767678,1.0909091,-0.0003085062,-0.003137458,1.4141204,-80.82198,2.4202182,0.0031525893
2.6767678,1.1313131,-0.00032972917,-0.0033405162,1.3960873,-83.68851,2.61229,0.00335675
2.6767678,1.1717172,-0.00034968555,-0.0035506599,1.3359195,-86.59254,2.8277373,0.0035678376
2.6767678,1.2121212,-0.00036811456,-0.003767822,1.2327207,-89.53303,3.0654018,0.0037857615
2.6767678,1.2525252,-0.00038496777,-0.0039921775,1.0859803,-92.51106,3.3237228,0.004010696
2.6767678,1.2929293,-0.00040002167,-0.0042236242,0.89583606,-95.52574,3.601387,0.004242525
2.6767678,1.3333334,-0.00041311607,-0.0044623315,0.6627345,-98.57687,3.896524,0.0044814134
2.6767678,1.3737373,-0.00042428076,-0.004708331,0.386669,-101.66466,4.206923,0.004727409
2.6767678,1.4141414,-0.00043325126,-0.0049616136,0.06820034,-104.78859,4.5304565,0.004980494
2.6767678,1.4545455,-0.00044005737,-0.005222164,-0.2908178,-107.94742,4.864873,0.0052406723
2.6767678,1.4949495,-0.00044461712,-0.005490195,-0.6908689,-111.1425,5.207851,0.005508169
2.6767678,1.5353535,-0.00044684857,-0.0057656392,-1.1294011,-114.372475,5.556799,0.0057829292
2.6767678,1.5757576,-0.0004467517,-0.006048551,-1.6066657,-117.637955,5.9092016,0.006065027
2.6767678,1.6161616,-0.00044438988,-0.006338967,-2.1211386,-120.93845,6.262437,0.0063545248
2.6767678,1.6565657,-0.00043980777,-0.006636923,-2.672027,-124.27443,6.6141143,0.0066514798
2.6767678,1.6969697,-0.0004329346,-0.0069426373,-3.2589147,-127.64676,6.9619255,0.006956123
2.6767678,1.7373737,-0.00042403862,-0.0072558858,-3.8812845,-131.05458,7.3035984,0.007268266
2.6767678,1.7777778,-0.0004130341,-0.00757692,-4.539002,-134.49974,7.636518,0.007588169
2.6767678,1.8181819,-0.0004001893,-0.007905735,-5.231832,-137.98207,7.959267,0.007915857
2.6767678,1.8585858,-0.000385575,-0.008242367,-5.959533,-141.50159,8.269917,0.008251381
2.6767678,1.8989899,-0.0003693588,-0.008586947,-6.723656,-145.0604,8.566646,0.008594886
2.6767678,1.939394,-0.000351768,-0.008939436,-7.524269,-148.65804,8.848222,0.0089463545
2.6767678,1.979798,-0.00033307076,-0.009299889,-8.363105,-152.29504,9.113901,0.0093058515
2.6767678,2.020202,-0.0003132783,-0.009668523,-9.240994,-155.97249,9.362925,0.009673597
2.6767678,2.060606,-0.0002927892,-0.0100452155,-10.160499,-159.69061,9.595321,0.010049482
2.6767678,2.10101,-0.0002718456,-0.010430004,-11.123094,-163.44946,9.810357,0.010433547
2.6767678,2.1414142,-0.0002506785,-0.010823142,-12.13167,-167.24968,10.009395,0.010826045
2.6767678,2.1818182,-0.00022944063,-0.0112244915,-13.18873,-171.09183,10.193533,0.011226837
2.6767678,2.2222223,-0.00020840764,-0.011634199,-14.297317,-174.97537,10.3641405,0.011636065
2.6767678,2.2626262,-0.00018794835,-0.0120522585,-15.462126,-178.90187,10.523066,0.012053723
2.6767678,2.3030303,-0.00016823411,-0.012478737,-16.685957,-182.87025,10.673849,0.0124798715
2.6767678,2.3434343,-0.00014961883,-0.012913687,-17.974916,-186.88307,10.818856,0.012914554
2.6767678,2.3838384,-0.00013211742,-0.013357129,-19.333006,-190.94044,10.962869,0.013357782
2.6767678,2.4242425,-0.00011616573,-0.013809143,-20.767206,-195.04547,11.110358,0.013809631
2.6767678,2.4646466,-0.00010194257,-0.014269728,-22.283684,-199.19902,11.266525,0.014270092
2.6767678,2.5050504,-8.95001e-05,-0.014738906,-23.890097,-203.40533,11.438009,0.014739178
2.6767678,2.5454545,-7.9125166e-05,-0.015216731,-25.59554,-207.66878,11.631669,0.015216936
2.6767678,2.5858586,-7.103756e-05,-0.015703209,-27.409737,-211.99591,11.854633,0.015703369
2.6767678,2.6262627,-6.522983e-05,-0.0161984,-29.34249,-216.39125,12.1153755,0.01619853
2.6767678,2.6666667,-6.180629e-05,-0.016702339,-31.407017,-220.86633,12.423442,0.016702453
2.6767678,2.7070708,-6.0986727e-05,-0.0172152,-33.615986,-225.42809,12.786642,0.017215308
2.6767678,2.7474747,-6.264821e-05,-0.017736927,-35.984516,-230.09044,13.215908,0.017737037
2.6767678,2.7878788,-6.702915e-05,-0.018267605,-38.527912,-234.86447,13.719875,0.018267728
2.6767678,2.8282828,-7.387623e-05,-0.018807393,-41.265102,-239.76764,14.309005,0.018807538
2.6767678,2.868687,-8.351356e-05,-0.019356348,-44.21407,-244.81342,14.991851,0.019356528
2.6767678,2.909091,-9.55686e-05,-0.019914716,-47.39482,-250.02104,15.778106,0.019914946
2.6767678,2.9494948,-0.00011031702,-0.020482514,-50.82956,-255.40764,16.673916,0.02048281
2.6767678,2.989899,-0.00012750179,-0.021060102,-54.540565,-260.99478,17.686064,0.021060487
2.6767678,3.030303,-0.00014720485,-0.021647558,-58.552773,-266.80035,18.818964,0.021648059
2.6767678,3.070707,-0.00016953796,-0.02224511,-62.8905,-272.84427,20.07282,0.022245755
2.6767678,3.1111112,-0.00019438937,-0.022853017,-67.58038,-279.1458,21.446722,0.022853844
2.6767678,3.1515152,-0.00022191927,-0.023471698,-72.64925,-285.72357,22.935349,0.023472747
2.6767678,3.191919,-0.00025258586,-0.024101272,-78.12791,-292.59427,24.52805,0.024102595
2.6767678,3.2323232,-0.00028627738,-0.024742048,-84.04499,-299.7716,26.211437,0.024743704
2.6767678,3.2727273,-0.000323873,-0.02539438,-90.43421,-307.26834,27.96363,0.025396446
2.6767678,3.3131313,-0.00036577508,-0.02605845,-97.33228,-315.09555,29.759605,0.026061017
2.6767678,3.3535354,-0.00041295215,-0.026734665,-104.77985,-323.26044,31.565655,0.026737854
2.6767678,3.3939395,-0.00046647713,-0.027423069,-112.82095,-331.7647,33.34173,0.027427036
2.6767678,3.4343433,-0.00052757934,-0.028124083,-121.50906,-340.6129,35.04032,0.028129032
2.6767678,3.4747474,-0.0005981773,-0.028837632,-130.907,-349.80444,36.60774,0.028843835
2.6767678,3.5151515,-0.00068015605,-0.029563937,-141.09077,-359.3392,37.982315,0.02957176
2.6767678,3.5555556,-0.00077607855,-0.030302808,-152.15121,-369.21567,39.09599,0.030312743
2.6767678,3.5959597,-0.00088861585,-0.03105425,-164.19775,-379.4356,39.877098,0.031066962
2.6767678,3.6363637,-0.0010213591,-0.03181787,-177.36789,-390.00607,40.24658,0.031834256
2.6767678,3.6767676,-0.0011777431,-0.032593362,-191.823,-400.937,40.125954,0.032614633
2.6767678,3.7171717,-0.0013622232,-0.033380173,-207.76447,-412.2519,39.433296,0.033407956
2.6767678,3.7575758,-0.0015792362,-0.034177594,-225.43298,-423.9885,38.093754,0.03421406
2.6767678,3.7979798,-0.0018340722,-0.03498477,-245.11382,-436.19797,36.033287,0.035032813
2.6767678,3.838384,-0.0021319687,-0.035800673,-267.1469,-448.95352,33.189617,0.0358641
2.6767678,3.878788,-0.0024787895,-0.036623985,-291.92667,-462.354,29.513134,0.036707774
2.6767678,3.9191918,-0.0028802864,-0.037453424,-319.91138,-476.52527,24.972752,0.037564013
2.6767678,3.959596,-0.0033423342,-0.038287394,-351.6247,-491.62817,19.558483,0.038433004
2.6767678,4.0,-0.0038708672,-0.039124172,-387.65228,-507.85303,13.28623,0.039315194
2.7272727,0.04040404,0.00023406371,-0.00014617667,0.07195181,-12.325991,3.1518917,0.00027595912
2.7272727,0.08080808,0.00022343919,-0.00017948821,-0.44834954,-15.105149,3.207187,0.00028660265
2.7272727,0.121212125,0.0002127774,-0.00021921284,-0.87001616,-17.840105,3.2403276,0.00030549712
2.7272727,0.16161616,0.00020208582,-0.0002651494,-1.1986104,-20.534555,3.25309,0.00033338097
2.7272727,0.2020202,0.00019099936,-0.00031736866,-1.4397362,-23.191628,3.247023,0.00037041007
2.7272727,0.24242425,0.00017949566,-0.00037583336,-1.5998025,-25.815538,3.224404,0.0004164966
2.7272727,0.28282827,0.00016762689,-0.00044061616,-1.6846416,-28.410286,3.1873865,0.00047142484
2.7272727,0.32323232,0.0001548715,-0.00051161833,-1.7017109,-30.979849,3.138542,0.00053454516
2.7272727,0.36363637,0.00014144555,-0.0005888622,-1.6571418,-33.528896,3.0801427,0.0006056117
2.7272727,0.4040404,0.0001273267,-0.00067248195,-1.5583154,-36.061493,3.015064,0.0006844297
2.7272727,0.44444445,0.000112403184,-0.0007623434,-1.4124833,-38.582016,2.946055,0.00077058544
2.7272727,0.4848485,9.65856e-05,-0.0008587036,-1.2266845,-41.09545,2.875764,0.00086411845
2.7272727,0.5252525,7.991865e-05,-0.00096124783,-1.0083351,-43.60562,2.8072345,0.00096456433
2.7272727,0.56565654,6.2529e-05,-0.0010703765,-0.76392853,-46.117256,2.7429817,0.0010722013
2.7272727,0.6060606,4.423037e-05,-0.0011857413,-0.5014618,-48.63405,2.686072,0.001186566
2.7272727,0.64646465,2.5220215e-05,-0.0013077483,-0.22733057,-51.160892,2.6388273,0.0013079914
2.7272727,0.68686867,5.695969e-06,-0.0014360994,0.052061155,-53.70074,2.603986,0.0014361107
2.7272727,0.72727275,-1.4539808e-05,-0.0015710313,0.32964453,-56.257954,2.58395,0.0015710986
2.7272727,0.7676768,-3.5084784e-05,-0.0017125662,0.59986013,-58.835583,2.5805783,0.0017129256
2.7272727,0.8080808,-5.5987388e-05,-0.0018608365,0.85691863,-61.437347,2.5959694,0.0018616786
2.7272727,0.8484849,-7.693842e-05,-0.0020156559,1.0958499,-64.06492,2.6321392,0.0020171236
2.7272727,0.8888889,-9.806827e-05,-0.0021771453,1.31115,-66.72158,2.6899598,0.002179353
2.7272727,0.9292929,-0.00011895597,-0.002345534,1.4984901,-69.40955,2.7710896,0.0023485485
2.7272727,0.969697,-0.0001395829,-0.0025206152,1.6545091,-72.129875,2.8762045,0.002524477
2.7272727,1.010101,-0.00015957281,-0.0027025882,1.7754053,-74.88451,3.0061347,0.0027072951
2.7272727,1.050505,-0.00017902255,-0.0028914046,1.8580356,-77.67457,3.160703,0.0028969413
2.7272727,1.0909091,-0.00019748136,-0.0030873045,1.9005932,-80.50091,3.3403442,0.003093614
2.7272727,1.1313131,-0.00021507591,-0.0032901056,1.9007678,-83.36374,3.5445457,0.003297128
2.7272727,1.1717172,-0.00023126975,-0.003500007,1.8570851,-86.26384,3.7724798,0.0035076395
2.7272727,1.2121212,-0.00024610385,-0.003716927,1.7690215,-89.20034,4.0237646,0.0037250656
2.7272727,1.2525252,-0.00025940686,-0.0039409865,1.6354852,-92.17395,4.2969904,0.0039495146
2.7272727,1.2929293,-0.00027118623,-0.0041722506,1.4562145,-95.18378,4.5904946,0.0041810544
2.7272727,1.3333334,-0.0002809912,-0.00441071,1.2322841,-98.2293,4.903118,0.004419652
2.7272727,1.3737373,-0.0002889298,-0.0046564285,0.9628308,-101.31058,5.232688,0.004665384
2.7272727,1.4141414,-0.00029483438,-0.0049093664,0.6499904,-104.42557,5.577488,0.0049182116
2.7272727,1.4545455,-0.00029849634,-0.0051697046,0.29395762,-107.57507,5.935548,0.005178315
2.7272727,1.4949495,-0.00030007586,-0.0054374076,-0.10481408,-110.75854,6.3042817,0.0054456815
2.7272727,1.5353535,-0.0002994053,-0.0057124738,-0.5440446,-113.97447,6.681637,0.0057203146
2.7272727,1.5757576,-0.0002965741,-0.005994944,-1.0238951,-117.22306,7.065023,0.0060022753
2.7272727,1.6161616,-0.000291463,-0.0062849782,-1.5426396,-120.50423,7.452667,0.0062917327
2.7272727,1.6565657,-0.00028415397,-0.0065825377,-2.0992706,-123.81788,7.8418107,0.006588668
2.7272727,1.6969697,-0.0002747029,-0.0068876315,-2.6932573,-127.16354,8.23053,0.0068931077
2.7272727,1.7373737,-0.00026323274,-0.007200351,-3.3249156,-130.5424,8.616653,0.0072051613
2.7272727,1.7777778,-0.00024982914,-0.0075206105,-3.9923313,-133.9535,8.998061,0.0075247586
2.7272727,1.8181819,-0.00023449957,-0.007848632,-4.6963577,-137.39793,9.373193,0.007852134
2.7272727,1.8585858,-0.00021758676,-0.008184293,-5.4371953,-140.87598,9.740476,0.008187185
2.7272727,1.8989899,-0.0001991503,-0.008527836,-6.2157993,-144.3886,10.098407,0.00853016
2.7272727,1.939394,-0.00017928705,-0.008879118,-7.0323763,-147.93547,10.446076,0.008880928
2.7272727,1.979798,-0.00015841797,-0.009238288,-7.8883915,-151.5178,10.782489,0.009239646
2.7272727,2.020202,-0.0001366362,-0.009605367,-8.785994,-155.13571,11.107225,0.009606339
2.7272727,2.060606,-0.000114094466,-0.009980362,-9.726541,-158.78966,11.420263,0.009981014
2.7272727,2.10101,-9.126961e-05,-0.010363361,-10.71271,-162.47932,11.721842,0.010363762
2.7272727,2.1414142,-6.816536e-05,-0.010754399,-11.747875,-166.20631,12.012659,0.010754615
2.7272727,2.1818182,-4.524365e-05,-0.01115353,-12.834251,-169.96935,12.293676,0.0111536225
2.7272727,2.2222223,-2.2698194e-05,-0.011560714,-13.975695,-173.7688,12.566751,0.011560735
2.7272727,2.2626262,-7.636845e-07,-0.011976052,-15.176221,-177.60445,12.833809,0.011976052
2.7272727,2.3030303,2.0246953e-05,-0.01239953,-16.440573,-181.47687,13.097498,0.012399547
2.7272727,2.3434343,4.0140003e-05,-0.012831181,-17.77306,-185.38617,13.361345,0.012831245
2.7272727,2.3838384,5.8591366e-05,-0.01327103,-19.180183,-189.33255,13.6294365,0.0132711595
2.7272727,2.4242425,7.54334e-05,-0.013719026,-20.667826,-193.31699,13.905604,0.013719234
2.7272727,2.4646466,9.031221e-05,-0.014175326,-22.24283,-197.34137,14.195683,0.014175613
2.7272727,2.5050504,0.00010312721,-0.014639752,-23.912884,-201.407,14.504916,0.014640115
2.7272727,2.5454545,0.00011371821,-0.015112445,-25.68751,-205.51776,14.840499,0.015112872
2.7272727,2.5858586,0.00012171641,-0.015593309,-27.575178,-209.67674,15.209027,0.015593784
2.7272727,2.6262627,0.00012715906,-0.016082406,-29.58686,-213.88976,15.618973,0.016082909
2.7272727,2.6666667,0.00012977421,-0.016579702,-31.734947,-218.16397,16.077984,0.016580211
2.7272727,2.7070708,0.00012963638,-0.01708525,-34.032635,-222.5076,16.595633,0.017085742
2.7272727,2.7474747,0.00012640283,-0.017599065,-36.494354,-226.93018,17.180607,0.01759952
2.7272727,2.7878788,0.00012021512,-0.018121012,-39.13567,-231.44363,17.84215,0.01812141
2.7272727,2.8282828,0.00011103228,-0.018651411,-41.973717,-236.06216,18.590933,0.01865174
2.7272727,2.868687,9.874627e-05,-0.019190188,-45.02664,-240.79953,19.434904,0.019190442
2.7272727,2.909091,8.3293766e-05,-0.019737367,-48.314888,-245.67278,20.38265,0.019737542
2.7272727,2.9494948,6.475672e-05,-0.020293057,-51.85872,-250.70003,21.442057,0.020293161
2.7272727,2.989899,4.3142587e-05,-0.020857468,-55.680607,-255.90096,22.61934,0.020857513
2.7272727,3.030303,1.8306077e-05,-0.021430708,-59.8033,-261.29538,23.917953,0.021430716
2.7272727,3.070707,-9.786338e-06,-0.022012856,-64.250374,-266.90244,25.34103,0.022012858
2.7272727,3.1111112,-4.1205436e-05,-0.022604208,-69.047165,-272.74393,26.887136,0.022604246
2.7272727,3.1515152,-7.6152384e-05,-0.023204979,-74.219925,-278.8408,28.551008,0.023205103
2.7272727,3.191919,-0.00011495128,-0.023815326,-79.79211,-285.20776,30.323587,0.023815604
2.7272727,3.2323232,-0.00015799701,-0.024435595,-85.79231,-291.8646,32.19082,0.024436105
2.7272727,3.2727273,-0.0002057217,-0.025065992,-92.24734,-298.82584,34.13395,0.025066836
2.7272727,3.3131313,-0.00025893375,-0.025706798,-99.188675,-306.1031,36.12527,0.025708102
2.7272727,3.3535354,-0.000318598,-0.026358321,-106.646996,-313.70673,38.131935,0.026360247
2.7272727,3.3939395,-0.0003858693,-0.027020723,-114.65616,-321.6407,40.114746,0.027023477
2.7272727,3.4343433,-0.0004623048,-0.02769427,-123.25842,-329.9091,42.023037,0.02769813
2.7272727,3.4747474,-0.00054973736,-0.028379127,-132.49788,-338.51154,43.802013,0.02838445
2.7272727,3.5151515,-0.0006504543,-0.029075414,-142.43224,-347.44592,45.38575,0.02908269
2.7272727,3.5555556,-0.000767041,-0.029783197,-153.1263,-356.70724,46.70219,0.029793072
2.7272727,3.5959597,-0.0009028129,-0.03050236,-164.6654,-366.29218,47.672062,0.03051572
2.7272727,3.6363637,-0.0010613017,-0.031232845,-177.14871,-376.19724,48.208454,0.03125087
2.7272727,3.6767676,-0.0012467317,-0.031974312,-190.70702,-386.42487,48.222767,0.031998612
2.7272727,3.7171717,-0.001463823,-0.032726396,-205.49721,-396.98474,47.621075,0.032759115
2.7272727,3.7575758,-0.001717966,-0.033488538,-221.71141,-407.8946,46.31077,0.033532575
2.7272727,3.7979798,-0.0020148046,-0.034259975,-239.58904,-419.18707,44.202633,0.034319166
2.7272727,3.838384,-0.0023608543,-0.03503985,-259.41302,-430.91507,41.213528,0.03511929
2.7272727,3.878788,-0.0027626306,-0.035827056,-281.5283,-443.15207,37.27197,0.03593341
2.7272727,3.9191918,-0.00322726,-0.036620416,-306.33557,-455.99728,32.322586,0.036762346
2.7272727,3.959596,-0.0037618726,-0.037418418,-334.30853,-469.58667,26.329739,0.037607044
2.7272727,4.0,-0.0043739937,-0.03821954,-365.98376,-484.08435,19.285244,0.038469017
2.777778,0.04040404,0.00025013834,-0.00010499731,-0.07998656,-12.242398,3.4691718,0.00027128146
2.777778,0.08080808,0.00024161115,-0.00013803318,-0.57399243,-15.004009,3.5619395,0.00027826085
2.777778,0.121212125,0.00023334846,-0.00017731637,-0.9706242,-17.722261,3.6317558,0.00029307438
2.777778,0.16161616,0.00022517517,-0.0002229102,-1.274349,-20.400297,3.6799805,0.00031684825
2.777778,0.2020202,0.00021687523,-0.00027465262,-1.4914951,-23.041922,3.7086344,0.0003499556
2.777778,0.24242425,0.00020841509,-0.0003326945,-1.627424,-25.650652,3.7193465,0.00039258436
2.777778,0.28282827,0.0001995042,-0.0003969781,-1.6889569,-28.230497,3.7144477,0.00044428994
2.777778,0.32323232,0.0001902692,-0.00046751462,-1.6819333,-30.78584,3.6960676,0.0005047497
2.777778,0.36363637,0.00018043816,-0.0005444009,-1.6139882,-33.321167,3.6669261,0.0005735244
2.777778,0.4040404,0.00016989931,-0.0006275084,-1.4917622,-35.840076,3.62971,0.000650102
2.777778,0.44444445,0.00015875325,-0.00071692094,-1.3219229,-38.347584,3.5869617,0.0007342876
2.777778,0.4848485,0.00014680997,-0.0008126721,-1.1123383,-40.84786,3.5415576,0.00082582625
2.777778,0.5252525,0.00013419613,-0.00091485307,-0.8698659,-43.34559,3.4963934,0.000924643
2.777778,0.56565654,0.00012077764,-0.0010234285,-0.6013159,-45.84491,3.4540453,0.0010305305
2.777778,0.6060606,0.00010666624,-0.0011383481,-0.3143751,-48.350018,3.4177465,0.0011433347
2.777778,0.64646465,9.192899e-05,-0.0012597777,-0.015432306,-50.86504,3.3897812,0.0012631273
2.777778,0.68686867,7.652119e-05,-0.001387734,0.28830758,-53.394047,3.3731222,0.0013898421
2.777778,0.72727275,6.0584396e-05,-0.0015221275,0.5904742,-55.940487,3.369834,0.0015233328
2.777778,0.7676768,4.4275075e-05,-0.0016632024,0.88539225,-58.507927,3.3822162,0.0016637916
2.777778,0.8080808,2.7608126e-05,-0.0018109046,1.1664915,-61.09964,3.4127321,0.0018111151
2.777778,0.8484849,1.0792166e-05,-0.0019651856,1.42897,-63.71778,3.462911,0.0019652152
2.777778,0.8888889,-6.109476e-06,-0.0021262858,1.6677301,-66.36538,3.5344875,0.0021262947
2.777778,0.9292929,-2.2884458e-05,-0.0022940636,1.8774992,-69.04465,3.6286762,0.0022941777
2.777778,0.969697,-3.9316714e-05,-0.002468709,2.055094,-71.75706,3.7467122,0.0024690218
2.777778,1.010101,-5.5398792e-05,-0.0026501864,2.1960618,-74.504105,3.8892865,0.0026507655
2.777778,1.050505,-7.08811e-05,-0.0028385874,2.2980285,-77.28662,4.056777,0.0028394721
2.777778,1.0909091,-8.556247e-05,-0.003033897,2.357951,-80.105865,4.2495255,0.003035103
2.777778,1.1313131,-9.923428e-05,-0.0032362398,2.3741302,-82.96186,4.4673233,0.0032377609
2.777778,1.1717172,-0.000111784786,-0.0034456048,2.3448308,-85.854355,4.7099233,0.0034474176
2.777778,1.2121212,-0.00012310222,-0.0036620647,2.2688193,-88.784,4.9762526,0.0036641331
2.777778,1.2525252,-0.00013294443,-0.003885666,2.1453104,-91.74923,5.265697,0.0038879395
2.777778,1.2929293,-0.00014118478,-0.004116373,1.9743948,-94.75032,5.577018,0.0041187936
2.777778,1.3333334,-0.00014777109,-0.004354248,1.7561195,-97.78591,5.9087906,0.0043567545
2.777778,1.3737373,-0.0001523979,-0.00459948,1.4906389,-100.85572,6.259329,0.004602004
2.777778,1.4141414,-0.00015514344,-0.0048519243,1.1789805,-103.95858,6.627053,0.004854404
2.777778,1.4545455,-0.00015589967,-0.0051116124,0.82203096,-107.09299,7.0098395,0.005113989
2.777778,1.4949495,-0.00015450642,-0.0053785667,0.4204854,-110.25874,7.4058256,0.0053807856
2.777778,1.5353535,-0.00015094131,-0.005653022,-0.024635272,-113.455086,7.8128605,0.005655037
2.777778,1.5757576,-0.00014533475,-0.005934773,-0.5113498,-116.680374,8.228759,0.0059365523
2.777778,1.6161616,-0.00013751909,-0.0062239524,-1.0396247,-119.934875,8.651524,0.0062254714
2.777778,1.6565657,-0.00012759492,-0.006520517,-1.607344,-123.21736,9.07906,0.0065217656
2.777778,1.6969697,-0.00011567399,-0.0068246797,-2.2150724,-126.529144,9.509004,0.00682566
2.777778,1.7373737,-0.00010170415,-0.007136248,-2.8607543,-129.8678,9.94015,0.0071369726
2.777778,1.7777778,-8.587912e-05,-0.007455321,-3.5447254,-133.2349,10.370027,0.0074558156
2.777778,1.8181819,-6.8280846e-05,-0.007781932,-4.266644,-136.62997,10.797509,0.007782232
2.777778,1.8585858,-4.9043447e-05,-0.008116156,-5.027503,-140.05399,11.22079,0.008116304
2.777778,1.8989899,-2.8505921e-05,-0.008457944,-5.826497,-143.50601,11.638896,0.008457992
2.777778,1.939394,-6.6049397e-06,-0.008807462,-6.6664133,-146.98793,12.050866,0.0088074645
2.777778,1.979798,1.6268343e-05,-0.009164544,-7.546406,-150.49884,12.456102,0.009164558
2.777778,2.020202,3.9994717e-05,-0.00952938,-8.469866,-154.04004,12.854161,0.009529464
2.777778,2.060606,6.4279884e-05,-0.009901958,-9.438822,-157.61128,13.244979,0.009902166
2.777778,2.10101,8.891523e-05,-0.010282213,-10.455229,-161.21323,13.628926,0.0102825975
2.777778,2.1414142,0.000113580376,-0.010670267,-11.52204,-164.84515,14.007187,0.0106708715
2.777778,2.1818182,0.00013804808,-0.011066239,-12.643409,-168.50821,14.380554,0.011067101
2.777778,2.2222223,0.00016201288,-0.011469828,-13.822309,-172.20078,14.750455,0.011470973
2.777778,2.2626262,0.00018510595,-0.011881335,-15.063489,-175.92336,15.119549,0.011882777
2.777778,2.3030303,0.00020721555,-0.012300633,-16.371233,-179.6751,15.489733,0.012302378
2.777778,2.3434343,0.00022804365,-0.012727791,-17.751278,-183.45648,15.864939,0.012729835
2.777778,2.3838384,0.0002471879,-0.013162689,-19.209146,-187.26671,16.24802,0.01316501
2.777778,2.4242425,0.00026446953,-0.013605453,-20.751719,-191.10608,16.643896,0.0136080235
2.777778,2.4646466,0.00027965382,-0.01405593,-22.385693,-194.97488,17.057287,0.014058712
2.777778,2.5050504,0.00029248744,-0.014514238,-24.118826,-198.8747,17.493517,0.014517184
2.777778,2.5454545,0.0003027618,-0.014980249,-25.960257,-202.8073,17.95891,0.0149833085
2.777778,2.5858586,0.0003102012,-0.0154538825,-27.918999,-206.77422,18.459787,0.015456996
2.777778,2.6262627,0.0003147982,-0.01593522,-30.00503,-210.77968,19.004429,0.015938329
2.777778,2.6666667,0.00031624362,-0.016424164,-32.231586,-214.82991,19.59948,0.016427208
2.777778,2.7070708,0.00031438097,-0.016920656,-34.610584,-218.93037,20.25445,0.016923577
2.777778,2.7474747,0.00030923262,-0.017424721,-37.155445,-223.08835,20.976944,0.017427465
2.777778,2.7878788,0.00030056015,-0.017936245,-39.883057,-227.31676,21.777082,0.017938763
2.777778,2.8282828,0.0002883412,-0.018455338,-42.807964,-231.62381,22.662952,0.01845759
2.777778,2.868687,0.0002725385,-0.018981796,-45.9487,-236.02454,23.643381,0.018983752
2.777778,2.909091,0.0002530925,-0.019515827,-49.323837,-240.53433,24.726753,0.019517468
2.777778,2.9494948,0.00022993982,-0.020057458,-52.954205,-245.17047,25.920736,0.020058777
2.777778,2.989899,0.00020295754,-0.020606566,-56.860405,-249.95076,27.231386,0.020607565
2.777778,3.030303,0.00017212704,-0.021163322,-61.06393,-254.8947,28.662767,0.021164022
2.777778,3.070707,0.00013734028,-0.021727897,-65.587,-260.0225,30.217525,0.021728331
2.777778,3.1111112,9.843707e-05,-0.022300296,-70.452446,-265.3548,31.895227,0.022300513
2.777778,3.1515152,5.5190176e-05,-0.0228808,-75.68449,-270.9135,33.690876,0.022880865
2.777778,3.191919,7.2680414e-06,-0.023469467,-81.30481,-276.71722,35.597298,0.023469469
2.777778,3.2323232,-4.5839697e-05,-0.024066597,-87.3396,-282.78543,37.59979,0.02406664
2.777778,3.2727273,-0.0001046136,-0.024672307,-93.80847,-289.13394,39.681168,0.024672529
2.777778,3.3131313,-0.00016992912,-0.025286958,-100.73726,-295.77768,41.814594,0.02528753
2.777778,3.3535354,-0.00024286658,-0.02591078,-108.14978,-302.72668,43.967888,0.025911918
2.777778,3.3939395,-0.0003245622,-0.02654396,-116.07186,-309.99042,46.10022,0.026545944
2.777778,3.4343433,-0.00041666627,-0.027186692,-124.52992,-317.57117,48.163567,0.027189884
2.777778,3.4747474,-0.0005213134,-0.027839188,-133.55731,-325.46857,50.099506,0.027844068
2.777778,3.5151515,-0.00064069405,-0.028501704,-143.18831,-333.6805,51.841763,0.028508905
2.777778,3.5555556,-0.00077783316,-0.029174197,-153.47176,-342.20035,53.315052,0.029184565
2.777778,3.5959597,-0.00093600526,-0.02985683,-164.45952,-351.0172,54.43354,0.0298715
2.777778,3.6363637,-0.0011191033,-0.030549474,-176.22716,-360.1258,55.106895,0.030569965
2.777778,3.6767676,-0.0013318025,-0.031251956,-188.86086,-369.5135,55.235485,0.03128032
2.777778,3.7171717,-0.0015792213,-0.031964038,-202.48047,-379.18127,54.715626,0.032003026
2.777778,3.7575758,-0.0018670373,-0.032685272,-217.22774,-389.12805,53.443077,0.03273855
2.777778,3.7979798,-0.002201762,-0.033415064,-233.29005,-399.36984,51.310574,0.033487525
2.777778,3.838384,-0.002590444,-0.034152694,-250.89545,-409.93616,48.218533,0.034250796
2.777778,3.878788,-0.00304069,-0.03489726,-270.3246,-420.87408,44.072628,0.035029482
2.777778,3.9191918,-0.0035604276,-0.035647634,-291.91525,-432.25644,38.79509,0.035825
2.777778,3.959596,-0.004158143,-0.03640252,-316.07794,-444.1872,32.32583,0.036639236
2.777778,4.0,-0.004842695,-0.03716059,-343.28885,-456.80194,24.62701,0.037474807
2.8282828,0.04040404,0.00026575103,-6.358698e-05,-0.20146959,-12.140641,3.7613916,0.0002732525
2.8282828,0.08080808,0.0002593957,-9.634718e-05,-0.67116255,-14.882989,3.8908787,0.00027671087
2.8282828,0.121212125,0.00025344267,-0.00013518333,-1.0439398,-17.582254,3.996844,0.0002872416
2.8282828,0.16161616,0.00024785474,-0.00018025748,-1.325192,-20.24212,4.0803366,0.00030647143
2.8282828,0.2020202,0.00024237856,-0.00023165159,-1.5202711,-22.866259,4.143044,0.00033527575
2.8282828,0.24242425,0.00023691729,-0.0002892036,-1.6343662,-25.457758,4.1868453,0.0003738563
2.8282828,0.28282827,0.000231307,-0.0003530234,-1.6743859,-28.021381,4.213578,0.00042205266
2.8282828,0.32323232,0.00022539124,-0.00042306073,-1.6464982,-30.560352,4.2259803,0.0004793554
2.8282828,0.36363637,0.00021917745,-0.0004993826,-1.5574305,-33.079536,4.2261386,0.0005453639
2.8282828,0.4040404,0.00021232292,-0.0005819183,-1.4142313,-35.58301,4.21687,0.0006194432
2.8282828,0.44444445,0.00020501763,-0.00067083724,-1.2232306,-38.07529,4.2008104,0.00070146617
2.8282828,0.4848485,0.00019707158,-0.0007660724,-0.9921943,-40.56069,4.1805716,0.00079101464
2.8282828,0.5252525,0.00018848851,-0.0008676052,-0.7282114,-43.043533,4.1592784,0.00088784384
2.8282828,0.56565654,0.00017922744,-0.0009755194,-0.43801993,-45.528168,4.139646,0.0009918471
2.8282828,0.6060606,0.00016925484,-0.0010898784,-0.12933518,-48.01918,4.12456,0.0011029424
2.8282828,0.64646465,0.00015872717,-0.0012107361,0.19114499,-50.52041,4.116687,0.0012210964
2.8282828,0.68686867,0.00014764443,-0.0013379715,0.51686555,-53.035885,4.1188216,0.0013460931
2.8282828,0.72727275,0.00013602525,-0.0014718082,0.84105146,-55.5691,4.1334124,0.0014780805
2.8282828,0.7676768,0.00012400746,-0.0016121753,1.1576127,-58.1237,4.1629405,0.0016169376
2.8282828,0.8080808,0.00011161342,-0.0017591864,1.4605063,-60.702465,4.2094293,0.0017627236
2.8282828,0.8484849,9.899959e-05,-0.0019128583,1.7434157,-63.309116,4.2748833,0.0019154184
2.8282828,0.8888889,8.638576e-05,-0.0020732395,2.0026,-65.94484,4.3614535,0.0020750384
2.8282828,0.9292929,7.383153e-05,-0.002240423,2.2324038,-68.61274,4.470125,0.0022416394
2.8282828,0.969697,6.1478466e-05,-0.0024143122,2.428586,-71.314,4.602601,0.0024150948
2.8282828,1.010101,4.9505383e-05,-0.0025951024,2.5876942,-74.05018,4.75929,0.0025955746
2.8282828,1.050505,3.7986785e-05,-0.0027827732,2.7057261,-76.822464,4.9412208,0.0027830326
2.8282828,1.0909091,2.7213246e-05,-0.0029774513,2.7807097,-79.631226,5.148603,0.0029775756
2.8282828,1.1313131,1.73226e-05,-0.0031790156,2.809976,-82.47634,5.3816547,0.0031790629
2.8282828,1.1717172,8.441508e-06,-0.003387656,2.7914693,-85.3587,5.6400456,0.0033876665
2.8282828,1.2121212,8.1956387e-07,-0.0036033709,2.7250252,-88.27672,5.9231844,0.003603371
2.8282828,1.2525252,-5.4873526e-06,-0.003826134,2.6089108,-91.23028,6.2307415,0.0038261379
2.8282828,1.2929293,-1.0333955e-05,-0.0040561594,2.4427035,-94.21887,6.561421,0.004056173
2.8282828,1.3333334,-1.3571233e-05,-0.0042931996,2.2271886,-97.24061,6.9138317,0.004293221
2.8282828,1.3737373,-1.4957041e-05,-0.0045374613,1.9622787,-100.29431,7.2869287,0.004537486
2.8282828,1.4141414,-1.4591962e-05,-0.004789008,1.6482025,-103.37957,7.678815,0.00478903
2.8282828,1.4545455,-1.2371689e-05,-0.005047776,1.2858464,-106.494576,8.0879345,0.0050477907
2.8282828,1.4949495,-8.031726e-06,-0.0053137727,0.87716484,-109.63721,8.51235,0.0053137788
2.8282828,1.5353535,-1.73226e-06,-0.005587099,0.42233238,-112.80777,8.950223,0.0055870996
2.8282828,1.5757576,6.5751374e-06,-0.005867677,-0.07672665,-116.00352,9.399526,0.0058676805
2.8282828,1.6161616,1.70134e-05,-0.006155625,-0.61910564,-119.224724,9.8583355,0.0061556487
2.8282828,1.6565657,2.945587e-05,-0.006450869,-1.2038374,-122.469444,10.324837,0.006450936
2.8282828,1.6969697,4.380569e-05,-0.006753469,-1.8298876,-125.73746,10.796721,0.006753611
2.8282828,1.7373737,6.0148537e-05,-0.0070635006,-2.496531,-129.0287,11.272787,0.0070637567
2.8282828,1.7777778,7.8216195e-05,-0.0073807817,-3.2028944,-132.3417,11.750888,0.007381196
2.8282828,1.8181819,9.799376e-05,-0.007705504,-3.9495084,-135.67725,12.229841,0.007706127
2.8282828,1.8585858,0.000119220465,-0.0080376025,-4.73548,-139.035,12.708416,0.008038486
2.8282828,1.8989899,0.00014191493,-0.008377191,-5.562306,-142.41487,13.185365,0.008378393
2.8282828,1.939394,0.00016563013,-0.008724075,-6.430948,-145.81755,13.659622,0.008725647
2.8282828,1.979798,0.00019039586,-0.009078521,-7.3415866,-149.24294,14.131328,0.009080518
2.8282828,2.020202,0.00021580234,-0.009440355,-8.297541,-152.6918,14.599282,0.009442821
2.8282828,2.060606,0.00024169683,-0.009809587,-9.299755,-156.16328,15.064768,0.009812565
2.8282828,2.10101,0.00026782602,-0.010186331,-10.351059,-159.65816,15.527242,0.010189852
2.8282828,2.1414142,0.00029384717,-0.0105706025,-11.4555025,-163.17711,15.987696,0.010574686
2.8282828,2.1818182,0.00031949952,-0.010962287,-12.615859,-166.71895,16.447657,0.010966942
2.8282828,2.2222223,0.00034455955,-0.011361469,-13.836473,-170.28395,16.908113,0.011366691
2.8282828,2.2626262,0.00036856905,-0.011767911,-15.120987,-173.87048,17.371656,0.011773681
2.8282828,2.3030303,0.00039148703,-0.012182025,-16.4752,-177.47995,17.840593,0.012188314
2.8282828,2.3434343,0.00041285902,-0.0126034245,-17.904383,-181.11053,18.317974,0.012610184
2.8282828,2.3838384,0.00043237954,-0.013032237,-19.414146,-184.76137,18.807163,0.013039407
2.8282828,2.4242425,0.00044982508,-0.0134683885,-21.011562,-188.43234,19.312027,0.013475898
2.8282828,2.4646466,0.00046483427,-0.0139118545,-22.702988,-192.12317,19.837116,0.013919618
2.8282828,2.5050504,0.00047723204,-0.01436251,-24.496916,-195.83339,20.387878,0.014370437
2.8282828,2.5454545,0.0004868023,-0.014820408,-26.401941,-199.5646,20.96977,0.014828401
2.8282828,2.5858586,0.0004932806,-0.015285384,-28.426271,-203.31732,21.58907,0.015293341
2.8282828,2.6262627,0.0004964024,-0.015757412,-30.581629,-207.09415,22.252008,0.01576523
2.8282828,2.6666667,0.0004961081,-0.016236331,-32.877857,-210.89781,22.967001,0.016243909
2.8282828,2.7070708,0.0004920997,-0.016722176,-35.32789,-214.73367,23.740913,0.016729416
2.8282828,2.7474747,0.000484284,-0.017214786,-37.945705,-218.60834,24.582134,0.017221596
2.8282828,2.7878788,0.00047246367,-0.017714147,-40.74389,-222.52943,25.498545,0.017720446
2.8282828,2.8282828,0.00045663118,-0.018220086,-43.739784,-226.50566,26.499096,0.018225808
2.8282828,2.868687,0.00043661892,-0.018732555,-46.949135,-230.54956,27.591421,0.018737644
2.8282828,2.909091,0.0004124567,-0.01925169,-50.390682,-234.67537,28.783909,0.019256108
2.8282828,2.9494948,0.0003838353,-0.019777123,-54.08241,-238.89606,30.083305,0.019780846
2.8282828,2.989899,0.0003508143,-0.020309184,-58.044228,-243.23106,31.49569,0.020312214
2.8282828,3.030303,0.00031319633,-0.0208477,-62.296707,-247.69814,33.025352,0.020850053
2.8282828,3.070707,0.00027082488,-0.021392584,-66.85884,-252.3149,34.674805,0.021394297
2.8282828,3.1111112,0.0002236329,-0.021944102,-71.75531,-257.105,36.44428,0.02194524
2.8282828,3.1515152,0.00017117336,-0.022502337,-77.00344,-262.0868,38.329205,0.022502987
2.8282828,3.191919,0.000113312155,-0.02306728,-82.625984,-267.28268,40.322533,0.02306756
2.8282828,3.2323232,4.9304217e-05,-0.023639016,-88.640976,-272.70953,42.412506,0.023639068
2.8282828,3.2727273,-2.1409243e-05,-0.02421799,-95.070015,-278.38864,44.579575,0.024217999
2.8282828,3.3131313,-9.961054e-05,-0.024804167,-101.9297,-284.33374,46.800694,0.024804367
2.8282828,3.3535354,-0.00018635765,-0.025397781,-109.23782,-290.55643,49.043537,0.025398465
2.8282828,3.3939395,-0.00028301403,-0.025999174,-117.01209,-297.06906,51.268986,0.026000714
2.8282828,3.4343433,-0.00039139763,-0.02660834,-125.26806,-303.87378,53.42839,0.026611218
2.8282828,3.4747474,-0.0005134158,-0.027225733,-134.02626,-310.97302,55.46442,0.027230574
2.8282828,3.5151515,-0.00065153465,-0.027851336,-143.30452,-318.36176,57.309887,0.027858956
2.8282828,3.5555556,-0.00080884993,-0.028485425,-153.13034,-326.03317,58.88666,0.028496906
2.8282828,3.5959597,-0.0009887703,-0.02912794,-163.53317,-333.97433,60.10909,0.029144717
2.8282828,3.6363637,-0.0011954717,-0.029779077,-174.55487,-342.17117,60.879353,0.029803064
2.8282828,3.6767676,-0.001433719,-0.030438598,-186.25089,-350.60617,61.093567,0.030472346
2.8282828,3.7171717,-0.0017088763,-0.031106476,-198.69824,-359.26807,60.640396,0.03115338
2.8282828,3.7575758,-0.0020274557,-0.0317823,-211.99376,-368.1415,59.401302,0.031846903
2.8282828,3.7979798,-0.0023959056,-0.032465704,-226.27034,-377.22556,57.259842,0.03255399
2.8282828,3.838384,-0.0028221793,-0.033155963,-241.69662,-386.52582,54.097145,0.033275858
2.8282828,3.878788,-0.0033144057,-0.033852473,-258.48712,-396.06598,49.801624,0.034014337
2.8282828,3.9191918,-0.0038815476,-0.034554206,-276.91702,-405.88968,44.272995,0.03477153
2.8282828,3.959596,-0.004532974,-0.03526008,-297.31866,-416.07074,37.426445,0.035550263
2.8282828,4.0,-0.0052787326,-0.035968788,-320.09567,-426.7079,29.19662,0.036354076
2.878788,0.04040404,0.00028084219,-2.2441149e-05,-0.29263076,-12.022158,4.028675,0.00028173736
2.878788,0.08080808,0.00027661398,-5.4668635e-05,-0.7398805,-14.742945,4.1945157,0.00028196446
2.878788,0.121212125,0.0002731271,-9.30801e-05,-1.0914187,-17.421593,4.3359466,0.0002885521
2.878788,0.16161616,0.00027016923,-0.00013778359,-1.3516256,-20.061342,4.4542146,0.000303275
2.878788,0.2020202,0.00026761368,-0.00018860027,-1.5262812,-22.665548,4.550654,0.0003273945
2.878788,0.24242425,0.0002652593,-0.0002457071,-1.6212468,-25.238045,4.6273117,0.00036157222
2.878788,0.28282827,0.00026285648,-0.0003089402,-1.6423166,-27.782784,4.685822,0.0004056323
2.878788,0.32323232,0.00026046857,-0.00037842058,-1.5953648,-30.303286,4.7287445,0.00045939744
2.878788,0.36363637,0.00025773048,-0.00045420974,-1.4877794,-32.804504,4.758185,0.000522237
2.878788,0.4040404,0.00025462732,-0.0005361382,-1.3263052,-35.290234,4.7770576,0.0005935311
2.878788,0.44444445,0.0002511926,-0.0006243624,-1.1169474,-37.764633,4.787827,0.00067299785
2.878788,0.4848485,0.00024727732,-0.00071891584,-0.86751854,-40.232807,4.7933736,0.0007602539
2.878788,0.5252525,0.000242766,-0.00081982836,-0.58502895,-42.69866,4.796403,0.0008550169
2.878788,0.56565654,0.0002376698,-0.00092709996,-0.27644327,-45.16678,4.7999544,0.0009570796
2.878788,0.6060606,0.00023200735,-0.0010407194,0.05127703,-47.64081,4.806703,0.0010662666
2.878788,0.64646465,0.00022566691,-0.0011607148,0.39058122,-50.12537,4.8197904,0.0011824485
2.878788,0.68686867,0.00021894649,-0.0012872592,0.7350083,-52.624645,4.8416395,0.0013057464
2.878788,0.72727275,0.00021165982,-0.0014202558,1.0782197,-55.141823,4.875185,0.001435941
2.878788,0.7676768,0.00020395592,-0.0015598573,1.4134353,-57.68049,4.9226274,0.0015731347
2.878788,0.8080808,0.0001959391,-0.0017059986,1.7343789,-60.24423,4.9864817,0.0017172138
2.878788,0.8484849,0.00018770248,-0.0018588863,2.0358353,-62.835285,5.0687065,0.001868339
2.878788,0.8888889,0.00017927215,-0.0020183362,2.3123474,-65.45616,5.1712694,0.002026282
2.878788,0.9292929,0.00017089769,-0.0021845717,2.5586262,-68.10921,5.295939,0.002191246
2.878788,0.969697,0.00016276911,-0.0023576375,2.7707262,-70.7965,5.4437857,0.0023632494
2.878788,1.010101,0.00015481189,-0.0025375318,2.94411,-73.51833,5.6162095,0.0025422499
2.878788,1.050505,0.00014740229,-0.0027242415,3.0758193,-76.27656,5.8140535,0.0027282264
2.878788,1.0909091,0.0001405552,-0.0029179398,3.1628857,-79.070984,6.037665,0.002921323
2.878788,1.1313131,0.00013449788,-0.0031185448,3.2020817,-81.90219,6.2873545,0.0031214438
2.878788,1.1717172,0.00012940913,-0.0033261739,3.192407,-84.76941,6.5633554,0.0033286903
2.878788,1.2121212,0.00012534484,-0.003540827,3.1317995,-87.67271,6.864865,0.003543045
2.878788,1.2525252,0.00012259558,-0.003762573,3.0198224,-90.61025,7.1917076,0.0037645698
2.878788,1.2929293,0.00012111291,-0.003991399,2.855277,-93.581635,7.5430117,0.003993236
2.878788,1.3333334,0.00012122467,-0.0042273905,2.638523,-96.58534,7.9175353,0.0042291284
2.878788,1.3737373,0.00012293085,-0.0044704843,2.3700469,-99.61931,8.314434,0.004472174
2.878788,1.4141414,0.00012635067,-0.004720675,2.0498958,-102.6818,8.731969,0.0047223656
2.878788,1.4545455,0.00013160333,-0.0049781296,1.6788622,-105.77212,9.16858,0.004979869
2.878788,1.4949495,0.0001386553,-0.0052427687,1.2583332,-108.88747,9.622452,0.005244602
2.878788,1.5353535,0.00014774874,-0.005514577,0.78979284,-112.02611,10.092131,0.005516556
2.878788,1.5757576,0.00015867874,-0.005793603,0.27440658,-115.18648,10.575648,0.0057957754
2.878788,1.6161616,0.00017160922,-0.006079821,-0.2878391,-118.368034,11.071054,0.0060822424
2.878788,1.6565657,0.0001864843,-0.0063732695,-0.89386815,-121.568115,11.576716,0.0063759973
2.878788,1.6969697,0.00020318106,-0.0066739284,-1.5437813,-124.78571,12.090831,0.006677021
2.878788,1.7373737,0.00022164732,-0.0069817454,-2.2359734,-128.02016,12.611551,0.006985263
2.878788,1.7777778,0.00024184957,-0.007296838,-2.9708338,-131.27101,13.13751,0.007300845
2.878788,1.8181819,0.000263609,-0.0076190885,-3.747248,-134.53796,13.666986,0.0076236473
2.878788,1.8585858,0.00028685108,-0.007948464,-4.565041,-137.81906,14.199423,0.007953638
2.878788,1.8989899,0.00031122193,-0.008285118,-5.4253545,-141.11597,14.733245,0.008290961
2.878788,1.939394,0.0003367178,-0.008628899,-6.3280816,-144.42726,15.267736,0.008635467
2.878788,1.979798,0.00036305562,-0.008979896,-7.274968,-147.75392,15.8027525,0.008987232
2.878788,2.020202,0.00038997084,-0.009337962,-8.268076,-151.09563,16.337816,0.0093461005
2.878788,2.060606,0.00041720644,-0.009703223,-9.309031,-154.45305,16.873281,0.009712188
2.878788,2.10101,0.0004444681,-0.010075612,-10.401041,-157.82558,17.408985,0.01008541
2.878788,2.1414142,0.00047164038,-0.010455055,-11.546803,-161.21346,17.94665,0.010465688
2.878788,2.1818182,0.0004983209,-0.010841621,-12.749573,-164.6161,18.486853,0.010853067
2.878788,2.2222223,0.00052406266,-0.011235269,-14.01475,-168.03438,19.030888,0.011247484
2.878788,2.2626262,0.0005487986,-0.011635985,-15.34494,-171.46635,19.581266,0.01164892
2.878788,2.3030303,0.0005720332,-0.012043646,-16.746813,-174.9118,20.140104,0.012057223
2.878788,2.3434343,0.0005935207,-0.012458228,-18.224997,-178.36992,20.709927,0.012472358
2.878788,2.3838384,0.00061303005,-0.012879731,-19.786274,-181.84073,21.294262,0.012894312
2.878788,2.4242425,0.0006301999,-0.013308058,-21.436111,-185.32166,21.896864,0.013322971
2.878788,2.4646466,0.0006447397,-0.013743229,-23.183136,-188.81308,22.52167,0.013758345
2.878788,2.5050504,0.00065626204,-0.014184982,-25.032957,-192.31268,23.173475,0.014200154
2.878788,2.5454545,0.0006646402,-0.014633374,-26.995571,-195.82188,23.857513,0.014648461
2.878788,2.5858586,0.0006695874,-0.015088208,-29.079327,-199.33994,24.579464,0.015103058
2.878788,2.6262627,0.0006708689,-0.015549455,-31.294138,-202.86786,25.345253,0.01556392
2.878788,2.6666667,0.0006682314,-0.016016945,-33.65058,-206.40727,26.161972,0.016030878
2.878788,2.7070708,0.0006614588,-0.01649063,-36.160694,-209.9629,27.036146,0.016503891
2.878788,2.7474747,0.00065038353,-0.016970228,-38.836555,-213.53644,27.975285,0.016982688
2.878788,2.7878788,0.0006349385,-0.017455801,-41.691494,-217.1354,28.987152,0.017467344
2.878788,2.8282828,0.00061484426,-0.017947078,-44.74018,-220.76642,30.078928,0.017957605
2.878788,2.868687,0.0005900189,-0.018444054,-47.998566,-224.43973,31.258934,0.018453488
2.878788,2.909091,0.0005603172,-0.018946495,-51.483307,-228.1669,32.533573,0.018954778
2.878788,2.9494948,0.00052559376,-0.019454379,-55.20996,-231.95926,33.909657,0.019461477
2.878788,2.989899,0.00048579276,-0.019967653,-59.1988,-235.83414,35.393093,0.019973561
2.878788,3.030303,0.00044066086,-0.020486154,-63.467823,-239.8079,36.98793,0.020490892
2.878788,3.070707,0.00039002672,-0.021009888,-68.03565,-243.89749,38.69651,0.021013508
2.878788,3.1111112,0.00033377856,-0.021538842,-72.92135,-248.12349,40.518925,0.021541428
2.878788,3.1515152,0.00027141348,-0.022073142,-78.1438,-252.50607,42.451397,0.022074811
2.878788,3.191919,0.0002027601,-0.022612572,-83.72028,-257.0655,44.488113,0.02261348
2.878788,3.2323232,0.00012709573,-0.023157455,-89.667725,-261.81982,46.616394,0.023157803
2.878788,3.2727273,4.3924898e-05,-0.023707744,-96.00187,-266.78958,48.820007,0.023707785
2.878788,3.3131313,-4.7881156e-05,-0.024263699,-102.73616,-271.9903,51.07547,0.024263745
2.878788,3.3535354,-0.00014916435,-0.02482535,-109.882675,-277.4375,53.35306,0.024825798
2.878788,3.3939395,-0.00026132166,-0.025393005,-117.45002,-283.1399,55.614777,0.02539435
2.878788,3.4343433,-0.00038616732,-0.025966749,-125.4487,-289.10526,57.81221,0.025969619
2.878788,3.4747474,-0.0005258061,-0.026546761,-133.88187,-295.33347,59.8902,0.026551967
2.878788,3.5151515,-0.0006826222,-0.027133338,-142.75665,-301.82263,61.781536,0.027141923
2.878788,3.5555556,-0.0008597709,-0.02772655,-152.08153,-308.5626,63.408173,0.027739877
2.878788,3.5959597,-0.0010608658,-0.028326526,-161.86517,-315.54007,64.683044,0.028346384
2.878788,3.6363637,-0.0012900904,-0.028933357,-172.12064,-322.73477,65.506546,0.028962104
2.878788,3.6767676,-0.0015523098,-0.02954707,-182.87498,-330.12823,65.770096,0.029587818
2.878788,3.7171717,-0.0018532649,-0.030167494,-194.16487,-337.69427,65.357445,0.030224366
2.878788,3.7575758,-0.0021993443,-0.030794524,-206.04324,-345.40823,64.1423,0.030872962
2.878788,3.7979798,-0.0025978275,-0.031427782,-218.58861,-353.25104,61.995983,0.031534966
2.878788,3.838384,-0.0030567683,-0.032066863,-231.91861,-361.2124,58.78793,0.032212228
2.878788,3.878788,-0.003584832,-0.032711074,-246.17818,-369.28812,54.38893,0.03290692
2.878788,3.9191918,-0.0041919276,-0.033359714,-261.57092,-377.4976,48.67842,0.03362206
2.878788,3.959596,-0.004888162,-0.034011856,-278.35376,-385.87875,41.547268,0.03436132
2.878788,4.0,-0.005684484,-0.034666263,-296.85004,-394.498,32.906578,0.035129234
2.929293,0.04040404,0.00029559433,1.8415973e-05,-0.35356745,-11.887973,4.2716584,0.00029616745
2.929293,0.08080808,0.00029354915,-1.33719295e-05,-0.7797617,-14.585045,4.4733014,0.00029385355
2.929293,0.121212125,0.00029252097,-5.138293e-05,-1.1114233,-17.240711,4.649663,0.00029699953
2.929293,0.16161616,0.0002922751,-9.555556e-05,-1.3535221,-19.858334,4.8021317,0.00030749894
2.929293,0.2020202,0.00029257312,-0.00014586002,-1.5104593,-22.44064,4.9320927,0.00032691617
2.929293,0.24242425,0.00029326975,-0.00020246394,-1.587976,-24.991657,5.0411544,0.0003563689
2.929293,0.28282827,0.00029423088,-0.00026511587,-1.5926918,-27.515293,5.131383,0.00039605334
2.929293,0.32323232,0.0002952367,-0.00033395365,-1.5297216,-30.015064,5.204745,0.0004457463
2.929293,0.36363637,0.0002961345,-0.00040903874,-1.4064186,-32.49592,5.2637086,0.0005049835
2.929293,0.4040404,0.00029686838,-0.00049028546,-1.2291393,-34.96121,5.310828,0.0005731585
2.929293,0.44444445,0.00029730424,-0.0005778577,-1.0042853,-37.41569,5.3486886,0.0006498533
2.929293,0.4848485,0.00029740483,-0.0006716233,-0.7395183,-39.86369,5.3802876,0.0007345253
2.929293,0.5252525,0.00029697642,-0.0007717442,-0.4414049,-42.309586,5.40814,0.0008269124
2.929293,0.56565654,0.0002961345,-0.0008781478,-0.117324814,-44.757954,5.4354134,0.00092673575
2.929293,0.6060606,0.0002946891,-0.0009909123,0.22591008,-47.212517,5.464925,0.0010338031
2.929293,0.64646465,0.0002927743,-0.0011100732,0.5807742,-49.677883,5.4996204,0.0011480327
2.929293,0.68686867,0.00029030815,-0.0012356676,0.941008,-52.15758,5.5421963,0.0012693121
2.929293,0.72727275,0.00028742477,-0.0013678074,1.2994468,-54.655823,5.5954013,0.0013976803
2.929293,0.7676768,0.00028409436,-0.0015064031,1.6499386,-57.17566,5.6619163,0.0015329579
2.929293,0.8080808,0.0002803877,-0.001651587,1.9862659,-59.72035,5.7440486,0.0016752183
2.929293,0.8484849,0.00027652085,-0.0018033478,2.302582,-62.29275,5.844036,0.0018244252
2.929293,0.8888889,0.00027238205,-0.0019617602,2.593168,-64.89519,5.963958,0.0019805795
2.929293,0.9292929,0.0002682954,-0.0021269154,2.8528695,-67.53029,6.1056952,0.0021437705
2.929293,0.969697,0.00026426092,-0.0022988394,3.0774615,-70.198944,6.270556,0.0023139785
2.929293,1.010101,0.0002605021,-0.0024775676,3.2625988,-72.90312,6.459898,0.0024912253
2.929293,1.050505,0.000257086,-0.0026631448,3.4044294,-75.64313,6.6749635,0.002675525
2.929293,1.0909091,0.0002542287,-0.0028555896,3.4998777,-78.41958,6.9160237,0.002866884
2.929293,1.1313131,0.00025193766,-0.0030549578,3.5461898,-81.23231,7.1837935,0.0030653286
2.929293,1.1717172,0.00025058165,-0.0032612663,3.5415623,-84.08097,7.4784307,0.003270879
2.929293,1.2121212,0.00025019795,-0.0034746062,3.4842253,-86.96472,7.799869,0.0034836025
2.929293,1.2525252,0.00025084987,-0.0036949366,3.37246,-89.88212,8.147389,0.003703442
2.929293,1.2929293,0.00025283545,-0.0039222967,3.2065146,-92.83199,8.520666,0.0039304374
2.929293,1.3333334,0.0002561435,-0.004156733,2.9855292,-95.81261,8.918579,0.0041646175
2.929293,1.3737373,0.00026101246,-0.004398303,2.7098162,-98.821976,9.340156,0.004406041
2.929293,1.4141414,0.00026745722,-0.0046468973,2.3798325,-101.85757,9.784289,0.0046545877
2.929293,1.4545455,0.0002756454,-0.004902605,1.9968138,-104.91781,10.24934,0.004910348
2.929293,1.4949495,0.00028542057,-0.005165467,1.5608205,-108.00053,10.733419,0.0051733465
2.929293,1.5353535,0.00029717386,-0.0054353885,1.0740858,-111.102684,11.235802,0.0054435064
2.929293,1.5757576,0.0003106445,-0.0057123695,0.53738207,-114.22215,11.753976,0.00572081
2.929293,1.6161616,0.0003259182,-0.005996421,-0.04827654,-117.35756,12.285981,0.006005272
2.929293,1.6565657,0.0003430508,-0.0062875897,-0.680311,-120.506676,12.831038,0.006296941
2.929293,1.6969697,0.00036190078,-0.0065857675,-1.3588353,-123.6676,13.386791,0.0065957033
2.929293,1.7373737,0.00038240477,-0.0068909507,-2.082285,-126.839,13.951587,0.006901553
2.929293,1.7777778,0.00040452555,-0.0072032046,-2.8496253,-130.01971,14.524374,0.0072145546
2.929293,1.8181819,0.00042818114,-0.007522445,-3.6607692,-133.20905,15.103765,0.0075346213
2.929293,1.8585858,0.00045304,-0.007848516,-4.515307,-136.40529,15.688086,0.007861581
2.929293,1.8989899,0.00047903508,-0.008181617,-5.413487,-139.60873,16.27652,0.008195628
2.929293,1.939394,0.0005059689,-0.00852157,-6.3556986,-142.81845,16.868631,0.008536578
2.929293,1.979798,0.0005335696,-0.008868385,-7.3434606,-146.03477,17.463762,0.008884422
2.929293,2.020202,0.0005616732,-0.009222027,-8.378243,-149.25787,18.061756,0.009239116
2.929293,2.060606,0.00059006736,-0.009582479,-9.462054,-152.48685,18.662811,0.009600629
2.929293,2.10101,0.00061830506,-0.00994971,-10.59762,-155.72285,19.26702,0.009968903
2.929293,2.1414142,0.0006462559,-0.010323638,-11.787561,-158.96463,19.875595,0.010343846
2.929293,2.1818182,0.00067342445,-0.010704281,-13.035901,-162.21306,20.48918,0.010725443
2.929293,2.2222223,0.0006996803,-0.011091456,-14.346675,-165.46693,21.109226,0.011113503
2.929293,2.2626262,0.00072459504,-0.011485197,-15.724276,-168.72612,21.738085,0.011508031
2.929293,2.3030303,0.00074794516,-0.011885496,-17.17319,-171.99023,22.377457,0.011909006
2.929293,2.3434343,0.0007692911,-0.012292251,-18.70047,-175.25854,23.02971,0.0123163
2.929293,2.3838384,0.000788372,-0.012705393,-20.310432,-178.52919,23.69835,0.012729829
2.929293,2.4242425,0.0008047484,-0.013124773,-22.010286,-181.80101,24.386148,0.013149422
2.929293,2.4646466,0.00081827864,-0.013550382,-23.807177,-185.0736,25.097853,0.013575067
2.929293,2.5050504,0.00082857534,-0.013982069,-25.708183,-188.34456,25.836916,0.014006598
2.929293,2.5454545,0.0008353554,-0.014419645,-27.721869,-191.61397,26.60804,0.014443821
2.929293,2.5858586,0.0008382611,-0.014863148,-29.856527,-194.88089,27.416744,0.014886768
2.929293,2.6262627,0.0008371137,-0.015312236,-32.12108,-198.14389,28.268549,0.015335101
2.929293,2.6666667,0.0008315854,-0.015766945,-34.526585,-201.4047,29.168415,0.015788859
2.929293,2.7070708,0.0008215681,-0.016227037,-37.083214,-204.6643,30.124195,0.016247822
2.929293,2.7474747,0.0008067675,-0.016692251,-39.802494,-207.92476,31.14121,0.016711736
2.929293,2.7878788,0.0007869378,-0.017162643,-42.697056,-211.19138,32.226414,0.017180676
2.929293,2.8282828,0.0007620044,-0.017637927,-45.78026,-214.46799,33.38709,0.01765438
2.929293,2.868687,0.00073166937,-0.01811779,-49.06668,-217.76297,34.629623,0.018132556
2.929293,2.909091,0.00069593266,-0.018602256,-52.57034,-221.08432,35.961132,0.018615268
2.929293,2.9494948,0.0006544553,-0.01909113,-56.30792,-224.4434,37.38621,0.019102344
2.929293,2.989899,0.00060724095,-0.019584317,-60.295742,-227.85365,38.911354,0.019593729
2.929293,3.030303,0.00055387616,-0.020081457,-64.54961,-231.32808,40.539646,0.020089094
2.929293,3.070707,0.00049440935,-0.020582639,-69.08773,-234.88483,42.273613,0.020588577
2.929293,3.1111112,0.0004283525,-0.021087736,-73.92636,-238.54103,44.112667,0.021092087
2.929293,3.1515152,0.00035542622,-0.0215967,-79.080635,-242.31403,46.0544,0.021599624
2.929293,3.191919,0.00027533993,-0.022109505,-84.567276,-246.22502,48.092297,0.022111218
2.929293,3.2323232,0.00018741563,-0.022626072,-90.39959,-250.2917,50.215458,0.022626847
2.929293,3.2727273,9.104237e-05,-0.023146614,-96.58916,-254.53467,52.408752,0.023146793
2.929293,3.3131313,-1.4755875e-05,-0.023671009,-103.14593,-258.96777,54.64929,0.023671014
2.929293,3.3535354,-0.00013098493,-0.024199486,-110.07579,-263.6073,56.909267,0.02419984
2.929293,3.3939395,-0.00025900826,-0.024732102,-117.38374,-268.4666,59.15224,0.024733458
2.929293,3.4343433,-0.00040065125,-0.025269002,-125.06771,-273.5495,61.333363,0.025272178
2.929293,3.4747474,-0.0005578883,-0.025810465,-133.12514,-278.8599,63.396626,0.025816493
2.929293,3.5151515,-0.0007334091,-0.026356455,-141.5502,-284.3948,65.27698,0.026366659
2.929293,3.5555556,-0.0009300932,-0.026907325,-150.33623,-290.14694,66.89934,0.026923396
2.929293,3.5959597,-0.0011516884,-0.027463041,-159.47081,-296.09744,68.174446,0.02748718
2.929293,3.6363637,-0.0014023446,-0.028023887,-168.94803,-302.22873,69.00513,0.028058954
2.929293,3.6767676,-0.0016870834,-0.028589785,-178.76173,-308.51047,69.27855,0.02863952
2.929293,3.7171717,-0.002011735,-0.029160712,-188.91586,-314.91525,68.87531,0.029230021
2.929293,3.7575758,-0.002382744,-0.029736608,-199.42603,-321.40823,67.66557,0.029831918
2.929293,3.7979798,-0.0028076582,-0.030317288,-210.3228,-327.95526,65.51181,0.030447017
2.929293,3.838384,-0.0032948032,-0.030902337,-221.66225,-334.5271,62.27146,0.031077487
2.929293,3.878788,-0.0038533174,-0.03149134,-233.53535,-341.1029,57.803883,0.03172621
2.929293,3.9191918,-0.0044934526,-0.032083638,-246.06828,-347.6698,51.96884,0.032396775
2.929293,3.959596,-0.00522596,-0.032678463,-259.4459,-354.24033,44.639503,0.033093695
2.929293,4.0,-0.006062757,-0.03327475,-273.90735,-360.84686,35.70088,0.033822566
2.979798,0.04040404,0.00030990317,5.8732927e-05,-0.38502055,-11.739126,4.4911075,0.0003154196
2.979798,0.08080808,0.00031014904,2.7321279e-05,-0.79243195,-14.410587,4.7275996,0.0003113501
2.979798,0.121212125,0.0003116466,-1.0283664e-05,-1.1061811,-17.041061,4.938496,0.00031181623
2.979798,0.16161616,0.0003140457,-5.396083e-05,-1.331328,-19.633718,5.1247377,0.0003186479
2.979798,0.2020202,0.00031736493,-0.00010374747,-1.4730296,-22.192024,5.2878313,0.00033389224
2.979798,0.24242425,0.00032116473,-0.00015967153,-1.536098,-24.719238,5.4291387,0.00035866667
2.979798,0.28282827,0.00032536313,-0.00022163987,-1.5265028,-27.219105,5.550738,0.00039368184
2.979798,0.32323232,0.000329867,-0.00028987415,-1.4503757,-29.69597,5.6545877,0.0004391347
2.979798,0.36363637,0.0003344454,-0.00036425889,-1.3140799,-32.15357,5.742987,0.0004945081
2.979798,0.4040404,0.00033899024,-0.00044474937,-1.1239172,-34.595882,5.8186884,0.0005592105
2.979798,0.44444445,0.00034334138,-0.0005314406,-0.8866179,-37.02758,5.8838406,0.0006327025
2.979798,0.4848485,0.00034745038,-0.00062439404,-0.6096945,-39.45294,5.9416814,0.0007145556
2.979798,0.5252525,0.0003510937,-0.00072365254,-0.29945824,-41.87605,5.9948997,0.0008043257
2.979798,0.56565654,0.0003543906,-0.0008290615,0.037075482,-44.301285,6.046477,0.00090162945
2.979798,0.6060606,0.00035729632,-0.00094087794,0.3921478,-46.733482,6.0992794,0.0010064353
2.979798,0.64646465,0.00035971776,-0.001059046,0.75969726,-49.176018,6.1562257,0.0011184701
2.979798,0.68686867,0.00036167726,-0.0011835564,1.132106,-51.6331,6.220295,0.0012375849
2.979798,0.72727275,0.00036309287,-0.0013145208,1.5027214,-54.108437,6.294155,0.0013637453
2.979798,0.7676768,0.00036419928,-0.0014520064,1.8651782,-56.605812,6.3805413,0.0014969849
2.979798,0.8080808,0.0003649071,-0.0015959535,2.2130373,-59.128014,6.4819155,0.0016371391
2.979798,0.8484849,0.00036532804,-0.00174658,2.5405393,-61.678093,6.600855,0.0017843783
2.979798,0.8888889,0.0003655739,-0.0019037053,2.8418915,-64.25832,6.7391577,0.0019384886
2.979798,0.9292929,0.00036568195,-0.0020675603,3.1118083,-66.87105,6.8989778,0.0020996497
2.979798,0.969697,0.00036585703,-0.0022380725,3.345803,-69.51732,7.081898,0.0022677786
2.979798,1.010101,0.00036624447,-0.0024154335,3.5386338,-72.19953,7.289486,0.002443042
2.979798,1.050505,0.0003668107,-0.0025994815,3.6874263,-74.91719,7.522715,0.0026252342
2.979798,1.0909091,0.0003678389,-0.0027903523,3.7881064,-77.67087,7.7825527,0.0028144931
2.979798,1.1313131,0.00036950782,-0.0029882286,3.8382263,-80.4612,8.069597,0.0030109875
2.979798,1.1717172,0.0003717877,-0.0031929016,3.8351605,-83.28622,8.384023,0.0032144745
2.979798,1.2121212,0.0003750138,-0.0034046154,3.777515,-86.14625,8.726126,0.0034252068
2.979798,1.2525252,0.0003791973,-0.0036231913,3.6635935,-89.03881,9.095523,0.0036429802
2.979798,1.2929293,0.00038443133,-0.0038488004,3.4921439,-91.96278,9.4917,0.003867952
2.979798,1.3333334,0.00039097667,-0.0040813684,3.2638009,-94.91551,9.91382,0.0041000526
2.979798,1.3737373,0.00039893016,-0.004320938,2.9778526,-97.89508,10.361335,0.0043393145
2.979798,1.4141414,0.00040828437,-0.0045675635,2.63496,-100.89925,10.832554,0.004585775
2.979798,1.4545455,0.0004191734,-0.004821129,2.235641,-103.9245,11.3266325,0.0048393174
2.979798,1.4949495,0.00043172017,-0.0050817244,1.7811409,-106.9686,11.841679,0.00510003
2.979798,1.5353535,0.00044596568,-0.0053493045,1.2723097,-110.02961,12.376614,0.005367862
2.979798,1.5757576,0.0004618019,-0.005623741,0.71121925,-113.10268,12.929349,0.00564267
2.979798,1.6161616,0.0004794337,-0.005905226,0.098930635,-116.18666,13.498682,0.005924656
2.979798,1.6565657,0.00049866363,-0.006193595,-0.56383073,-119.2791,14.082508,0.006213637
2.979798,1.6969697,0.0005194284,-0.0064888243,-1.2746403,-122.377464,14.679262,0.006509581
2.979798,1.7373737,0.00054183975,-0.006790817,-2.033028,-125.47926,15.2876835,0.0068123993
2.979798,1.7777778,0.0005657114,-0.007099673,-2.8374555,-128.58313,15.906023,0.007122176
2.979798,1.8181819,0.0005908869,-0.0074152276,-3.687191,-131.6874,16.532854,0.0074387332
2.979798,1.8585858,0.0006171949,-0.0077374913,-4.5825233,-134.79105,17.16715,0.007762068
2.979798,1.8989899,0.0006445497,-0.008066323,-5.5225725,-137.89244,17.80802,0.008092034
2.979798,1.939394,0.00067261234,-0.008401845,-6.508621,-140.99237,18.454432,0.0084287245
2.979798,1.979798,0.00070136413,-0.008743877,-7.5406837,-144.08905,19.106264,0.008771961
2.979798,2.020202,0.00073033944,-0.009092357,-8.620707,-147.18283,19.763033,0.0091216415
2.979798,2.060606,0.00075948983,-0.009447282,-9.750651,-150.27332,20.424616,0.009477762
2.979798,2.10101,0.0007882342,-0.0098085385,-10.932399,-153.35991,21.091692,0.00984016
2.979798,2.1414142,0.0008166842,-0.010176113,-12.168811,-156.44316,21.764593,0.010208832
2.979798,2.1818182,0.00084412843,-0.010549875,-13.464083,-159.52325,22.44475,0.010583592
2.979798,2.2222223,0.0008704327,-0.01092983,-14.821434,-162.59906,23.133179,0.0109644355
2.979798,2.2626262,0.0008952543,-0.011315841,-16.24541,-165.67119,23.831455,0.0113512
2.979798,2.3030303,0.0009182431,-0.011707863,-17.741419,-168.7381,24.541412,0.011743817
2.979798,2.3434343,0.0009390004,-0.012105711,-19.314383,-171.79965,25.265987,0.012142073
2.979798,2.3838384,0.0009571463,-0.012509454,-20.970367,-174.85434,26.007162,0.012546018
2.979798,2.4242425,0.0009725243,-0.012918804,-22.71595,-177.90123,26.768393,0.012955358
2.979798,2.4646466,0.0009845905,-0.013333835,-24.557686,-180.9392,27.55316,0.013370138
2.979798,2.5050504,0.0009931065,-0.013754247,-26.502422,-183.9655,28.365173,0.013790053
2.979798,2.5454545,0.0009977333,-0.014179952,-28.558708,-186.97963,29.208569,0.01421501
2.979798,2.5858586,0.0009982325,-0.014610821,-30.734026,-189.98003,30.087982,0.014644882
2.979798,2.6262627,0.000994157,-0.015046667,-33.037914,-192.96535,31.007755,0.015079475
2.979798,2.6666667,0.0009853281,-0.015487347,-35.479126,-195.93527,31.973902,0.015518659
2.979798,2.7070708,0.0009714514,-0.015932672,-38.068615,-198.89009,32.991535,0.01596226
2.979798,2.7474747,0.00095235184,-0.016382307,-40.81542,-201.82933,34.066673,0.016409965
2.979798,2.7878788,0.0009276457,-0.016836233,-43.732246,-204.7567,35.204483,0.01686177
2.979798,2.8282828,0.00089733675,-0.01729418,-46.831345,-207.67537,36.41175,0.017317444
2.979798,2.868687,0.00086095557,-0.017755847,-50.12396,-210.58847,37.693676,0.017776709
2.979798,2.909091,0.00081860647,-0.018221173,-53.625175,-213.50533,39.057186,0.018239552
2.979798,2.9494948,0.0007698573,-0.018689767,-57.347248,-216.4317,40.505993,0.018705616
2.979798,2.989899,0.000714574,-0.019161627,-61.306915,-219.38002,42.04511,0.019174946
2.979798,3.030303,0.0006525032,-0.019636422,-65.517494,-222.36133,43.677658,0.019647261
2.979798,3.070707,0.00058348477,-0.020114012,-69.993225,-225.38924,45.405663,0.020122474
2.979798,3.1111112,0.0005071871,-0.02059422,-74.74961,-228.47958,47.22909,0.020600464
2.979798,3.1515152,0.00042329356,-0.021077015,-79.80042,-231.65036,49.14512,0.021081265
2.979798,3.191919,0.0003312491,-0.021562193,-85.15596,-234.9165,51.146652,0.021564737
2.979798,3.2323232,0.00023056194,-0.02204974,-90.830124,-238.29765,53.224796,0.022050945
2.979798,3.2727273,0.00012051687,-0.02253956,-96.82978,-241.81017,55.364655,0.022539882
2.979798,3.3131313,3.6135316e-07,-0.023031697,-103.1617,-245.47319,57.54628,0.023031697
2.979798,3.3535354,-0.00013107434,-0.023526236,-109.82699,-249.29903,59.74195,0.023526601
2.979798,3.3939395,-0.00027531013,-0.024023123,-116.82382,-253.29877,61.916626,0.0240247
2.979798,3.4343433,-0.000433892,-0.024522584,-124.146965,-257.48242,64.02879,0.024526423
2.979798,3.4747474,-0.0006088652,-0.025024593,-131.78398,-261.8521,66.0251,0.025031999
2.979798,3.5151515,-0.00080273673,-0.02552944,-139.71935,-266.40588,67.84264,0.025542058
2.979798,3.5555556,-0.0010186322,-0.026037179,-147.9308,-271.13425,69.406845,0.026057096
2.979798,3.5959597,-0.0012600198,-0.026547916,-156.39474,-276.02274,70.632965,0.026577802
2.979798,3.6363637,-0.0015311874,-0.027061757,-165.08209,-281.04694,71.42268,0.02710504
2.979798,3.6767676,-0.0018370561,-0.027578838,-173.96518,-286.17905,71.66496,0.027639953
2.979798,3.7171717,-0.002183538,-0.028099254,-183.01637,-291.3812,71.23768,0.028183965
2.979798,3.7575758,-0.0025769882,-0.02862278,-192.21574,-296.6141,70.008934,0.028738553
2.979798,3.7979798,-0.00302523,-0.02914944,-201.55339,-301.83377,67.835915,0.029306004
2.979798,3.838384,-0.003536459,-0.029678866,-211.03325,-306.9932,64.56984,0.029888822
2.979798,3.878788,-0.0041203164,-0.030210897,-220.68803,-312.05627,60.05783,0.030490577
2.979798,3.9191918,-0.004787091,-0.030744843,-230.5788,-316.986,54.14759,0.031115295
2.979798,3.959596,-0.0055483766,-0.031280164,-240.81279,-321.7646,46.692585,0.03176843
2.979798,4.0,-0.006416265,-0.031815983,-251.54713,-326.39398,37.557514,0.032456513
3.030303,0.04040404,0.00032406673,9.811483e-05,-0.38790733,-11.576702,4.6875296,0.00033859382
3.030303,0.08080808,0.00032656267,6.708503e-05,-0.77817583,-14.220045,4.9583893,0.00033338202
3.030303,0.121212125,0.0003304705,3.0035153e-05,-1.0766522,-16.823158,5.203202,0.0003318326
3.030303,0.16161616,0.00033565983,-1.3092533e-05,-1.28714,-19.388638,5.4228477,0.00033591507
3.030303,0.2020202,0.0003418289,-6.228872e-05,-1.4157096,-21.920317,5.6185784,0.00034745777
3.030303,0.24242425,0.00034879148,-0.00011758879,-1.4665358,-24.421312,5.791871,0.00036807964
3.030303,0.28282827,0.0003563799,-0.00017894432,-1.4458423,-26.8953,5.944663,0.00039878278
3.030303,0.32323232,0.00036440417,-0.0002464205,-1.3586004,-29.345863,6.0788903,0.00043990166
3.030303,0.36363637,0.00037258118,-0.00031998754,-1.2123116,-31.777658,6.1967044,0.0004911301
3.030303,0.4040404,0.00038088113,-0.00039965846,-1.0123196,-34.193974,6.3008437,0.00055208453
3.030303,0.44444445,0.00038913265,-0.00048553944,-0.76606935,-36.60008,6.3936896,0.0006222321
3.030303,0.4848485,0.00039726123,-0.0005774982,-0.4796994,-38.999367,6.478203,0.0007009427
3.030303,0.5252525,0.0004051216,-0.0006757248,-0.16023001,-41.396698,6.556979,0.00078786263
3.030303,0.56565654,0.0004125908,-0.00078011863,0.18493077,-43.796074,6.633186,0.0008825057
3.030303,0.6060606,0.00041977316,-0.0008907616,0.5488249,-46.201836,6.7099,0.0009847161
3.030303,0.64646465,0.00042656437,-0.0010077693,0.9254212,-48.618103,6.7898273,0.001094329
3.030303,0.68686867,0.00043284893,-0.0011311118,1.3063679,-51.04888,6.876076,0.0012111036
3.030303,0.72727275,0.00043869764,-0.001260791,1.685545,-53.49812,6.971159,0.0013349343
3.030303,0.7676768,0.00044412538,-0.0013969336,2.0563803,-55.968937,7.0782137,0.0014658344
3.030303,0.8080808,0.00044922158,-0.0015394893,2.4122787,-58.4647,7.1998644,0.0016036917
3.030303,0.8484849,0.00045400858,-0.0016886406,2.747639,-60.988144,7.3383374,0.0017486082
3.030303,0.8888889,0.00045855343,-0.0018442962,3.056107,-63.541866,7.4959908,0.0019004473
3.030303,0.9292929,0.000462953,-0.002006555,3.332562,-66.12796,7.674968,0.002059269
3.030303,0.969697,0.00046723336,-0.0021754615,3.5718257,-68.74764,7.8769207,0.0022250707
3.030303,1.010101,0.0004717596,-0.0023511145,3.7698011,-71.40293,8.103536,0.0023979775
3.030303,1.050505,0.00047633052,-0.0025334656,3.9218845,-74.093575,8.35601,0.0025778555
3.030303,1.0909091,0.00048131868,-0.002722606,4.0248213,-76.8203,8.635531,0.0027648238
3.030303,1.1313131,0.0004867427,-0.0029184893,4.075166,-79.582535,8.942709,0.0029588002
3.030303,1.1717172,0.00049271807,-0.0031212848,4.0706763,-82.37985,9.27792,0.0031599351
3.030303,1.2121212,0.00049944595,-0.003330933,4.009374,-85.21079,9.6416445,0.0033681686
3.030303,1.2525252,0.0005069487,-0.0035474338,3.88968,-88.07337,10.033496,0.0035834736
3.030303,1.2929293,0.00051566586,-0.003770819,3.7104597,-90.966255,10.453421,0.003805915
3.030303,1.3333334,0.00052526966,-0.0040011946,3.4713335,-93.886536,10.900279,0.0040355255
3.030303,1.3737373,0.0005362183,-0.004238408,3.1719425,-96.83179,11.373904,0.0042721927
3.030303,1.4141414,0.00054845586,-0.0044825766,2.8130655,-99.79864,11.87292,0.0045160046
3.030303,1.4545455,0.0005620457,-0.004733585,2.3947525,-102.78436,12.396151,0.0047668354
3.030303,1.4949495,0.00057716295,-0.004991494,1.9184685,-105.78575,12.942363,0.0050247516
3.030303,1.5353535,0.0005937554,-0.005256217,1.3849415,-108.79927,13.509839,0.005289647
3.030303,1.5757576,0.00061183795,-0.0055277776,0.79589796,-111.82124,14.097128,0.005561535
3.030303,1.6161616,0.00063148513,-0.0058060586,0.1529563,-114.84864,14.702726,0.0058402987
3.030303,1.6565657,0.0006526746,-0.0060910583,-0.54282224,-117.87912,15.324811,0.0061259265
3.030303,1.6969697,0.00067535415,-0.0063827615,-1.2892078,-120.90862,15.9618225,0.0064183916
3.030303,1.7373737,0.00069929287,-0.0066810697,-2.0856767,-123.935646,16.612083,0.006717567
3.030303,1.7777778,0.00072463974,-0.006985953,-2.930402,-126.95703,17.274227,0.007023435
3.030303,1.8181819,0.00075122714,-0.0072973166,-3.8222551,-129.9707,17.94685,0.007335882
3.030303,1.8585858,0.0007787831,-0.0076150373,-4.7611094,-132.97491,18.628872,0.0076547563
3.030303,1.8989899,0.0008070655,-0.0079391375,-5.746869,-135.96867,19.318897,0.007980054
3.030303,1.939394,0.00083616003,-0.008269511,-6.7785416,-138.95024,20.016554,0.008311677
3.030303,1.979798,0.0008655898,-0.008606086,-7.8582754,-141.91946,20.720871,0.008649507
3.030303,2.020202,0.0008952357,-0.008948727,-8.985528,-144.87537,21.431793,0.008993395
3.030303,2.060606,0.0009246841,-0.009297393,-10.163004,-147.81763,22.14921,0.009343263
3.030303,2.10101,0.00095378235,-0.009652035,-11.392733,-150.74617,22.872803,0.009699046
3.030303,2.1414142,0.00098221,-0.01001247,-12.676883,-153.6607,23.604284,0.010060532
3.030303,2.1818182,0.0010096654,-0.010378677,-14.019082,-156.56157,24.343336,0.010427673
3.030303,2.2222223,0.0010356195,-0.01075051,-15.422694,-159.44821,25.091574,0.010800276
3.030303,2.2626262,0.0010598786,-0.011127856,-16.89194,-162.31996,25.850414,0.011178217
3.030303,2.3030303,0.0010820813,-0.011510696,-18.432228,-165.17738,26.621634,0.011561446
3.030303,2.3434343,0.0011018403,-0.011898886,-20.048187,-168.01917,27.407251,0.0119497925
3.030303,2.3838384,0.0011187457,-0.012292245,-21.746391,-170.8453,28.20973,0.012343051
3.030303,2.4242425,0.0011325367,-0.012690654,-23.531588,-173.65318,29.031778,0.012741088
3.030303,2.4646466,0.0011427142,-0.01309406,-25.41125,-176.44304,29.876558,0.013143828
3.030303,2.5050504,0.0011490695,-0.013502223,-27.392374,-179.21231,30.747412,0.013551029
3.030303,2.5454545,0.0011510886,-0.013915025,-29.482256,-181.95941,31.647627,0.013962555
3.030303,2.5858586,0.0011485815,-0.014332291,-31.68761,-184.68225,32.58168,0.01437824
3.030303,2.6262627,0.0011411719,-0.014753742,-34.018585,-187.37993,33.553608,0.01479781
3.030303,2.6666667,0.0011285804,-0.0151793435,-36.483177,-190.05112,34.56782,0.015221241
3.030303,2.7070708,0.0011103973,-0.015608724,-39.09014,-192.69318,35.62892,0.015648171
3.030303,2.7474747,0.0010864399,-0.016041745,-41.848877,-195.30711,36.742474,0.016078493
3.030303,2.7878788,0.0010564663,-0.016478177,-44.770702,-197.89282,37.913223,0.01651201
3.030303,2.8282828,0.0010202713,-0.016917773,-47.865364,-200.45253,39.145847,0.01694851
3.030303,2.868687,0.0009774938,-0.017360225,-51.145332,-202.98827,40.445984,0.017387724
3.030303,2.909091,0.0009279214,-0.017805308,-54.62106,-205.50449,41.81791,0.01782947
3.030303,2.9494948,0.00087135285,-0.018252786,-58.30555,-208.00699,43.266193,0.018273573
3.030303,2.989899,0.00080755726,-0.018702522,-62.2109,-210.50377,44.794094,0.018719949
3.030303,3.030303,0.00073632225,-0.019154027,-66.34926,-213.00316,46.4051,0.019168174
3.030303,3.070707,0.00065740943,-0.019607216,-70.734566,-215.5179,48.10021,0.019618234
3.030303,3.1111112,0.00057034567,-0.020061877,-75.37761,-218.05939,49.87786,0.020069981
3.030303,3.1515152,0.00047488883,-0.02051783,-80.290215,-220.64246,51.73664,0.020523325
3.030303,3.191919,0.00037059933,-0.020974755,-85.48181,-223.28165,53.670357,0.02097803
3.030303,3.2323232,0.00025684386,-0.02143275,-90.96022,-225.99376,55.66868,0.021434288
3.030303,3.2727273,0.00013298541,-0.021891586,-96.73142,-228.79501,57.71918,0.02189199
3.030303,3.3131313,-1.9781291e-06,-0.022351127,-102.79756,-231.6992,59.80098,0.022351127
3.030303,3.3535354,-0.00014892966,-0.02281148,-109.156525,-234.72124,61.890633,0.022811966
3.030303,3.3939395,-0.0003092438,-0.023272518,-115.80321,-237.8733,63.954956,0.023274573
3.030303,3.4343433,-0.00048483908,-0.023734286,-122.72373,-241.16057,65.95291,0.023739237
3.030303,3.4747474,-0.0006773956,-0.024196927,-129.90251,-244.58983,67.834885,0.024206406
3.030303,3.5151515,-0.00088946894,-0.024660502,-137.3132,-248.1573,69.54158,0.024676537
3.030303,3.5555556,-0.0011240542,-0.025125057,-144.92528,-251.85532,71.00033,0.02515019
3.030303,3.5959597,-0.0013845675,-0.025590718,-152.70169,-255.66837,72.12997,0.025628146
3.030303,3.6363637,-0.0016753115,-0.026057642,-160.596,-259.5714,72.83322,0.02611144
3.030303,3.6767676,-0.0020010583,-0.026525859,-168.56226,-263.5357,73.00275,0.026601229
3.030303,3.7171717,-0.0023675412,-0.026995506,-176.54808,-267.52084,72.516365,0.027099125
3.030303,3.7575758,-0.0027812682,-0.02746638,-184.50293,-271.48065,71.2425,0.027606836
3.030303,3.7979798,-0.0032498129,-0.02793866,-192.37828,-275.36264,69.034584,0.028127033
3.030303,3.838384,-0.00378168,-0.028412055,-200.13676,-279.11124,65.73992,0.028662624
3.030303,3.878788,-0.004386235,-0.028886367,-207.75589,-282.67032,61.199112,0.029217482
3.030303,3.9191918,-0.0050742254,-0.029361226,-215.23903,-285.98892,55.248863,0.029796466
3.030303,3.959596,-0.005857181,-0.029835962,-222.61983,-289.02057,47.729225,0.030405447
3.030303,4.0,-0.0067478493,-0.030310042,-229.97871,-291.73917,38.485435,0.031052088
3.0808082,0.04040404,0.0003379248,0.00013643876,-0.36364606,-11.401537,4.8618164,0.0003644293
3.0808082,0.08080808,0.0003427565,0.00010582991,-0.73892474,-14.014675,5.1664352,0.00035872273
3.0808082,0.121212125,0.000349205,6.9273636e-05,-1.0238758,-16.587906,5.444526,0.00035600978
3.0808082,0.16161616,0.00035709515,2.6710331e-05,-1.2225724,-19.123894,5.697062,0.00035809272
3.0808082,0.2020202,0.00036624447,-2.1958724e-05,-1.3399854,-21.626394,5.924985,0.00036690215
3.0808082,0.24242425,0.00037628785,-7.6547265e-05,-1.3812846,-24.09835,6.130106,0.00038399483
3.0808082,0.28282827,0.00038713962,-0.00013713352,-1.3516876,-26.54336,6.3137007,0.00041071
3.0808082,0.32323232,0.0003985949,-0.00020384043,-1.2570353,-28.965458,6.4781194,0.00044769276
3.0808082,0.36363637,0.0004104562,-0.00027649477,-1.1031102,-31.368103,6.6253996,0.0004948976
3.0808082,0.4040404,0.00042255223,-0.0003552623,-0.89664704,-33.7559,6.758046,0.0005520522
3.0808082,0.44444445,0.0004347898,-0.0004401412,-0.64334637,-36.132565,6.8786545,0.0006186812
3.0808082,0.4848485,0.00044688955,-0.00053108484,-0.3515043,-38.50296,6.989822,0.0006940903
3.0808082,0.5252525,0.00045887753,-0.000628151,-0.026289154,-40.870712,7.094626,0.0007779089
3.0808082,0.56565654,0.0004705824,-0.00073138997,0.32461742,-43.24063,7.1959248,0.00086970057
3.0808082,0.6060606,0.0004819855,-0.00084087625,0.69416326,-45.61663,7.2968264,0.0009692176
3.0808082,0.64646465,0.0004930347,-0.0009564664,1.075498,-48.002914,7.400127,0.0010760628
3.0808082,0.68686867,0.0005036555,-0.0010784529,1.4614062,-50.403687,7.5087943,0.0011902645
3.0808082,0.72727275,0.0005138926,-0.0012067389,1.8459227,-52.822502,7.6260133,0.0013116037
3.0808082,0.7676768,0.00052374974,-0.0013412721,2.2215803,-55.26241,7.7545633,0.0014399044
3.0808082,0.8080808,0.0005331896,-0.0014822781,2.5820122,-57.727516,7.8970017,0.0015752586
3.0808082,0.8484849,0.00054226443,-0.0016297288,2.921224,-60.220028,8.055767,0.0017175758
3.0808082,0.8888889,0.00055110827,-0.001783669,3.233591,-62.742733,8.233556,0.0018668678
3.0808082,0.9292929,0.00055972114,-0.0019441135,3.5133169,-65.29714,8.432218,0.0020230832
3.0808082,0.969697,0.0005682595,-0.0021111704,3.75475,-67.88597,8.654014,0.0021863119
3.0808082,1.010101,0.00057674944,-0.0022848137,3.9536254,-70.5092,8.900384,0.0023564834
3.0808082,1.050505,0.0005853288,-0.0024651121,4.1059804,-73.16781,9.172956,0.0025336512
3.0808082,1.0909091,0.0005941726,-0.0026521385,4.2075844,-75.862335,9.472567,0.0027178815
3.0808082,1.1313131,0.00060336664,-0.00284593,4.255226,-78.59216,9.800582,0.002909187
3.0808082,1.1717172,0.00061297417,-0.0030463748,4.2465186,-81.35565,10.157271,0.0031074325
3.0808082,1.2121212,0.00062322244,-0.0032536834,4.178459,-84.15287,10.542943,0.003312833
3.0808082,1.2525252,0.00063417107,-0.0034676977,4.0500674,-86.98052,10.95788,0.0035252091
3.0808082,1.2929293,0.00064601377,-0.0036886,3.8599303,-89.83731,11.401659,0.0037447433
3.0808082,1.3333334,0.0006587878,-0.003916243,3.6072104,-92.719574,11.873801,0.003971267
3.0808082,1.3737373,0.00067249313,-0.0041507,3.2915325,-95.62518,12.373726,0.004204825
3.0808082,1.4141414,0.00068749115,-0.0043919273,2.9142962,-98.549675,12.900408,0.00444541
3.0808082,1.4545455,0.0007036738,-0.004639931,2.4739342,-101.491135,13.452705,0.0046929857
3.0808082,1.4949495,0.00072119385,-0.0048946496,1.973542,-104.44383,14.029624,0.0049474956
3.0808082,1.5353535,0.00073998794,-0.0051560923,1.4126059,-107.40533,14.629384,0.005208922
3.0808082,1.5757576,0.00076026097,-0.0054241754,0.7935943,-110.37129,15.250467,0.005477196
3.0808082,1.6161616,0.00078177825,-0.0056988634,0.117527984,-113.33754,15.89137,0.005752236
3.0808082,1.6565657,0.0008047186,-0.0059800465,-0.6133632,-116.30053,16.55058,0.006033948
3.0808082,1.6969697,0.0008289106,-0.0062676575,-1.3984144,-119.257706,17.22622,0.0063222325
3.0808082,1.7373737,0.0008544326,-0.0065616947,-2.235033,-122.2041,17.917076,0.0066170907
3.0808082,1.7777778,0.0008809306,-0.006862022,-3.1222522,-125.13763,18.621035,0.0069183367
3.0808082,1.8181819,0.0009085871,-0.0071686003,-4.0589232,-128.05617,19.337032,0.0072259502
3.0808082,1.8585858,0.00093703344,-0.007481208,-5.043642,-130.95587,20.063816,0.007539662
3.0808082,1.8989899,0.00096618757,-0.007799918,-6.0763893,-133.83572,20.800043,0.007859532
3.0808082,1.939394,0.0009958073,-0.00812453,-7.1561704,-136.694,21.54508,0.00818533
3.0808082,1.979798,0.0010256916,-0.008454936,-8.284248,-139.52928,22.297808,0.0085169235
3.0808082,2.020202,0.0010555722,-0.008791093,-9.4600525,-142.34105,23.058401,0.008854239
3.0808082,2.060606,0.0010851882,-0.009132903,-10.686698,-145.12886,23.82585,0.009197149
3.0808082,2.10101,0.0011141114,-0.009480096,-11.9643345,-147.89171,24.600674,0.009545337
3.0808082,2.1414142,0.0011423044,-0.00983271,-13.295551,-150.62938,25.383253,0.009898841
3.0808082,2.1818182,0.0011691637,-0.010190569,-14.683966,-153.34239,26.17423,0.010257418
3.0808082,2.2222223,0.0011944659,-0.01055357,-16.132751,-156.03079,26.974262,0.010620951
3.0808082,2.2626262,0.0012178607,-0.010921551,-17.64524,-158.69353,27.784842,0.010989243
3.0808082,2.3030303,0.001238741,-0.01129438,-19.226877,-161.33171,28.607376,0.011362108
3.0808082,2.3434343,0.0012571476,-0.011672003,-20.882404,-163.94492,29.443674,0.011739509
3.0808082,2.3838384,0.0012723692,-0.012054196,-22.616302,-166.5309,30.295986,0.012121162
3.0808082,2.4242425,0.001284074,-0.012440847,-24.435686,-169.09082,31.166508,0.0125069395
3.0808082,2.4646466,0.0012919642,-0.012831725,-26.345806,-171.62183,32.0582,0.012896602
3.0808082,2.5050504,0.001295656,-0.013226798,-28.354694,-174.1246,32.973904,0.013290105
3.0808082,2.5454545,0.0012946911,-0.013625685,-30.467913,-176.59529,33.916473,0.0136870565
3.0808082,2.5858586,0.0012888499,-0.014028395,-32.692703,-179.033,34.8899,0.014087476
3.0808082,2.6262627,0.0012775771,-0.014434695,-35.038666,-181.43575,35.89703,0.014491122
3.0808082,2.6666667,0.0012607388,-0.014844239,-37.512302,-183.80246,36.94264,0.014897681
3.0808082,2.7070708,0.0012377538,-0.015256833,-40.12229,-186.12949,38.029835,0.01530696
3.0808082,2.7474747,0.0012085997,-0.01567227,-42.877422,-188.41646,39.163723,0.015718803
3.0808082,2.7878788,0.0011729263,-0.016090367,-45.786324,-190.66219,40.34787,0.01613306
3.0808082,2.8282828,0.001130335,-0.016510695,-48.859432,-192.8667,41.58658,0.016549341
3.0808082,2.868687,0.0010806024,-0.016933065,-52.105824,-195.0312,42.884087,0.01696751
3.0808082,2.909091,0.0010235272,-0.017357245,-55.53542,-197.15703,44.243984,0.017387398
3.0808082,2.9494948,0.0009588264,-0.017782848,-59.1598,-199.24892,45.670357,0.01780868
3.0808082,2.989899,0.00088619813,-0.018209651,-62.9884,-201.31094,47.165527,0.018231202
3.0808082,3.030303,0.00080533326,-0.01863731,-67.03182,-203.34882,48.73092,0.018654702
3.0808082,3.070707,0.0007160939,-0.019065578,-71.2999,-205.37141,50.36864,0.01907902
3.0808082,3.1111112,0.0006180741,-0.019494228,-75.80322,-207.38875,52.076496,0.019504024
3.0808082,3.1515152,0.00051087514,-0.019922983,-80.54935,-209.41164,53.851482,0.019929532
3.0808082,3.191919,0.00039393082,-0.020351585,-85.54634,-211.45334,55.68815,0.020355396
3.0808082,3.2323232,0.00026686862,-0.020779714,-90.79823,-213.52637,57.57817,0.020781428
3.0808082,3.2727273,0.00012892112,-0.02120753,-96.30893,-215.64487,59.507282,0.021207921
3.0808082,3.3131313,-2.079457e-05,-0.021634568,-102.07722,-217.82188,61.45791,0.021634579
3.0808082,3.3535354,-0.00018328801,-0.02206086,-108.09742,-220.07031,63.406647,0.022061622
3.0808082,3.3939395,-0.00035983697,-0.022486273,-114.35993,-222.39957,65.32335,0.022489151
3.0808082,3.4343433,-0.0005521588,-0.022910833,-120.84836,-224.81842,67.169,0.022917487
3.0808082,3.4747474,-0.00076205656,-0.023334548,-127.53793,-227.3281,68.8972,0.023346988
3.0808082,3.5151515,-0.0009919815,-0.02375738,-134.4003,-229.92886,70.4514,0.02377808
3.0808082,3.5555556,-0.0012447424,-0.024179377,-141.39458,-232.61133,71.76319,0.024211394
3.0808082,3.5959597,-0.0015237369,-0.024600707,-148.47293,-235.36057,72.7535,0.02464785
3.0808082,3.6363637,-0.0018330514,-0.025021274,-155.57948,-238.1531,73.33035,0.025088329
3.0808082,3.6767676,-0.002177421,-0.025441281,-162.64871,-240.95734,73.3885,0.02553429
3.0808082,3.7171717,-0.0025623478,-0.025860835,-169.61105,-243.73207,72.80871,0.025987467
3.0808082,3.7575758,-0.0029942356,-0.026279848,-176.38965,-246.42847,71.460785,0.026449874
3.0808082,3.7979798,-0.003480535,-0.026698302,-182.90477,-248.98717,69.19946,0.026924217
3.0808082,3.838384,-0.004029732,-0.02711609,-189.08118,-251.34375,65.868805,0.027413884
3.0808082,3.878788,-0.0046510994,-0.027533136,-194.85442,-253.43361,61.30681,0.02792322
3.0808082,3.9191918,-0.0053552724,-0.027949013,-200.16925,-255.18483,55.34188,0.028457448
3.0808082,3.959596,-0.006154012,-0.028363422,-204.99863,-256.53308,47.803425,0.029023362
3.0808082,4.0,-0.0070601925,-0.028775733,-209.34886,-257.42612,38.524517,0.029629193
3.131313,0.04040404,0.00035179034,0.00017347746,-0.31443384,-11.214558,5.014825,0.00039223826
3.131313,0.08080808,0.00035884604,0.00014328212,-0.6766867,-13.795173,5.3523283,0.0003863939
3.131313,0.121212125,0.000367824,0.00010726601,-0.9501639,-16.3359,5.663421,0.00038314553
3.131313,0.16161616,0.0003784038,6.526336e-05,-1.1392857,-18.840195,5.9481707,0.00038399055
3.131313,0.2020202,0.0003904365,1.7305836e-05,-1.2480389,-21.310617,6.207965,0.00039081986
3.131313,0.24242425,0.00040359795,-3.6608428e-05,-1.2821625,-23.750944,6.4443088,0.00040525486
3.131313,0.28282827,0.00041783974,-9.645522e-05,-1.2461852,-26.16414,6.6586595,0.00042882824
3.131313,0.32323232,0.00043267757,-0.00016227923,-1.1465275,-28.554577,6.8529496,0.00046210867
3.131313,0.36363637,0.00044814125,-0.00023404136,-0.9883408,-30.925364,7.029495,0.00050557486
3.131313,0.4040404,0.00046395138,-0.00031177886,-0.7780142,-33.28104,7.1905336,0.00055897847
3.131313,0.44444445,0.0004800409,-0.00039558858,-0.5220908,-35.62558,7.3387847,0.00062203663
3.131313,0.4848485,0.0004961826,-0.0004853569,-0.22682182,-37.963223,7.476959,0.00069409545
3.131313,0.5252525,0.0005122386,-0.0005812142,0.10045354,-40.29819,7.6077404,0.00077472464
3.131313,0.56565654,0.0005281344,-0.00068311766,0.4539761,-42.63463,7.734402,0.0008634672
3.131313,0.6060606,0.00054381415,-0.0007912293,0.82505494,-44.977177,7.8596396,0.0009600925
3.131313,0.64646465,0.00055911765,-0.0009053666,1.2085572,-47.3294,7.986852,0.0010640965
3.131313,0.68686867,0.0005740598,-0.001025755,1.5965124,-49.695663,8.118574,0.001175465
3.131313,0.72727275,0.0005886853,-0.001152426,1.982053,-52.08008,8.258162,0.0012940773
3.131313,0.7676768,0.0006028302,-0.0012852699,2.3593042,-54.484768,8.408503,0.0014196207
3.131313,0.8080808,0.0006165616,-0.0014244113,2.720485,-56.91441,8.572172,0.0015521263
3.131313,0.8484849,0.000629995,-0.0015699826,3.0604894,-59.371464,8.751973,0.0016916676
3.131313,0.8888889,0.0006430559,-0.0017219707,3.372853,-61.857986,8.950227,0.0018381252
3.131313,0.9292929,0.000655856,-0.0018803142,3.6516888,-64.3766,9.169361,0.0019914138
3.131313,0.969697,0.000668481,-0.0020452626,3.8920505,-66.92861,9.411283,0.0021517356
3.131313,1.010101,0.0006810017,-0.0022166502,4.0891128,-69.51498,9.677971,0.0023189008
3.131313,1.050505,0.000693582,-0.0023946222,4.2382035,-72.136665,9.970935,0.0024930446
3.131313,1.0909091,0.0007062517,-0.0025792215,4.335664,-74.79348,10.291423,0.002674168
3.131313,1.1313131,0.0007190816,-0.0027703997,4.3772473,-77.485214,10.6403885,0.0028622006
3.131313,1.1717172,0.0007322654,-0.0029682592,4.360944,-80.21034,11.018525,0.0030572496
3.131313,1.2121212,0.0007459633,-0.0031728186,4.283461,-82.967705,11.426528,0.003259331
3.131313,1.2525252,0.0007601492,-0.0033840053,4.1440587,-85.75482,11.864565,0.0034683307
3.131313,1.2929293,0.0007751323,-0.0036019646,3.9403605,-88.56986,12.332275,0.0036844239
3.131313,1.3333334,0.0007908046,-0.0038264748,3.6719654,-91.40869,12.829656,0.003907337
3.131313,1.3737373,0.00080739334,-0.004057737,3.3380659,-94.26912,13.355557,0.004137283
3.131313,1.4141414,0.0008249283,-0.004295619,2.9393883,-97.14638,13.909629,0.0043741115
3.131313,1.4545455,0.0008436702,-0.004540149,2.4759893,-100.037476,14.490624,0.0046178713
3.131313,1.4949495,0.00086335465,-0.0047911517,1.9485104,-102.93693,15.097414,0.004868318
3.131313,1.5353535,0.0008843094,-0.0050488543,1.3587615,-105.84171,15.728403,0.005125713
3.131313,1.5757576,0.00090639666,-0.005312899,0.70776707,-108.74635,16.38223,0.0053896615
3.131313,1.6161616,0.0009296797,-0.0055834055,-0.0025387495,-111.646545,17.05752,0.0056602755
3.131313,1.6565657,0.0009542145,-0.0058602598,-0.7713769,-114.53904,17.752232,0.005937438
3.131313,1.6969697,0.0009798333,-0.0061433,-1.595651,-117.418236,18.464943,0.006220949
3.131313,1.7373737,0.0010063797,-0.0064324383,-2.4745083,-120.28044,19.193726,0.006510688
3.131313,1.7777778,0.0010340214,-0.006727718,-3.4052622,-123.12219,19.93731,0.0068067163
3.131313,1.8181819,0.0010623746,-0.0070289,-4.3871336,-125.94007,20.694124,0.0071087326
3.131313,1.8585858,0.0010915771,-0.007335849,-5.4188466,-128.73149,21.462742,0.007416618
3.131313,1.8989899,0.0011211932,-0.00764855,-6.4996214,-131.49348,22.241573,0.0077302908
3.131313,1.939394,0.0011511222,-0.007966781,-7.6282306,-134.22414,23.029917,0.008049514
3.131313,1.979798,0.0011811145,-0.008290455,-8.805182,-136.92194,23.826797,0.008374168
3.131313,2.020202,0.0012108721,-0.008619491,-10.030284,-139.58496,24.631666,0.008704128
3.131313,2.060606,0.0012401156,-0.008953659,-11.305273,-142.21313,25.444044,0.009039131
3.131313,2.10101,0.0012687445,-0.009292876,-12.630244,-144.80492,26.263922,0.009379086
3.131313,2.1414142,0.0012961738,-0.009636985,-14.008101,-147.36081,27.09102,0.009723762
3.131313,2.1818182,0.0013221577,-0.0099857785,-15.441111,-149.88089,27.926113,0.010072928
3.131313,2.2222223,0.0013463646,-0.010339262,-16.93229,-152.36505,28.77044,0.010426555
3.131313,2.2626262,0.0013683066,-0.010697104,-18.485353,-154.81299,29.62368,0.010784262
3.131313,2.3030303,0.001387775,-0.011059308,-20.103846,-157.22543,30.488255,0.011146041
3.131313,2.3434343,0.0014042519,-0.01142562,-21.793142,-159.60138,31.36504,0.011511591
3.131313,2.3838384,0.0014173351,-0.011795884,-23.558302,-161.94185,32.256405,0.011880728
3.131313,2.4242425,0.0014266297,-0.01216992,-25.404789,-164.24585,33.16375,0.012253254
3.131313,2.4646466,0.0014318265,-0.012547607,-27.33811,-166.51285,34.08965,0.012629037
3.131313,2.5050504,0.0014323778,-0.012928773,-29.36469,-168.74147,35.036804,0.013007877
3.131313,2.5454545,0.0014280789,-0.013313118,-31.491385,-170.93082,36.00783,0.013389493
3.131313,2.5858586,0.0014183,-0.013700495,-33.725025,-173.07796,37.005287,0.013773711
3.131313,2.6262627,0.0014028214,-0.014090644,-36.072853,-175.18268,38.03309,0.0141603025
3.131313,2.6666667,0.0013812296,-0.014483422,-38.542267,-177.24232,39.09367,0.014549134
3.131313,2.7070708,0.0013532303,-0.0148785,-41.140285,-179.25317,40.190426,0.014939913
3.131313,2.7474747,0.0013184659,-0.015275642,-43.87573,-181.21555,41.32752,0.015332436
3.131313,2.7878788,0.0012765639,-0.015674587,-46.755524,-183.12509,42.507652,0.015726484
3.131313,2.8282828,0.0012273528,-0.016075127,-49.78909,-184.98282,43.734737,0.016121913
3.131313,2.868687,0.0011703558,-0.016476728,-52.98455,-186.78667,45.011192,0.016518243
3.131313,2.909091,0.001105357,-0.016879357,-56.349102,-188.53601,46.340725,0.016915511
3.131313,2.9494948,0.001032155,-0.017282542,-59.893425,-190.23373,47.72539,0.017313335
3.131313,2.989899,0.0009503402,-0.01768604,-63.624516,-191.88132,49.168045,0.017711554
3.131313,3.030303,0.0008596815,-0.018089384,-67.55084,-193.48192,50.66847,0.0181098
3.131313,3.070707,0.0007599406,-0.01849246,-71.680855,-195.04173,52.228004,0.01850807
3.131313,3.1111112,0.0006506182,-0.018894888,-76.02142,-196.56735,53.844505,0.018906087
3.131313,3.1515152,0.00053146854,-0.0192963,-80.578835,-198.06668,55.5141,0.019303618
3.131313,3.191919,0.00040202215,-0.0196965,-85.35673,-199.54779,57.232643,0.019700602
3.131313,3.2323232,0.0002614595,-0.02009517,-90.35901,-201.02254,58.989395,0.02009687
3.131313,3.2727273,0.0001093708,-0.020492014,-95.58571,-202.50238,60.772476,0.020492306
3.131313,3.3131313,-5.5041164e-05,-0.020886987,-101.03087,-203.9955,62.565758,0.02088706
3.131313,3.3535354,-0.00023295358,-0.0212798,-106.687584,-205.51369,64.34646,0.021281077
3.131313,3.3939395,-0.00042557344,-0.02167027,-112.54151,-207.06503,66.086,0.021674449
3.131313,3.4343433,-0.000634443,-0.022058431,-118.5744,-208.6564,67.74855,0.022067552
3.131313,3.4747474,-0.0008613281,-0.02244408,-124.75787,-210.28969,69.290474,0.022460604
3.131313,3.5151515,-0.0011086501,-0.0228272,-131.05484,-211.96219,70.658325,0.022854107
3.131313,3.5555556,-0.0013790615,-0.023207854,-137.42256,-213.66714,71.7872,0.023248792
3.131313,3.5959597,-0.0016756691,-0.023585983,-143.80234,-215.38795,72.60411,0.023645433
3.131313,3.6363637,-0.0020026304,-0.023961615,-150.13084,-217.1018,73.019196,0.024045154
3.131313,3.6767676,-0.0023643374,-0.024334911,-156.32993,-218.77844,72.93183,0.0244495
3.131313,3.7171717,-0.002766259,-0.024705727,-162.31427,-220.37389,72.228065,0.024860112
3.131313,3.7575758,-0.0032145195,-0.025074173,-167.98622,-221.83755,70.7797,0.025279384
3.131313,3.7979798,-0.0037163273,-0.025440276,-173.24316,-223.10727,68.44366,0.025710285
3.131313,3.838384,-0.0042799227,-0.025803916,-177.97926,-224.11493,65.06654,0.026156448
3.131313,3.878788,-0.004914552,-0.026165001,-182.0893,-224.78267,60.483276,0.026622549
3.131313,3.9191918,-0.005630724,-0.026523277,-185.47592,-225.03088,54.520607,0.027114375
3.131313,3.959596,-0.0064400323,-0.026878346,-188.05466,-224.77856,46.999382,0.027639093
3.131313,4.0,-0.0073554367,-0.027229909,-189.76515,-223.9472,37.740627,0.028205857
3.1818182,0.04040404,0.00036556646,0.0002090875,-0.24261218,-11.016984,5.147236,0.00042113705
3.1818182,0.08080808,0.0003748499,0.000179369,-0.5937975,-13.562336,5.517292,0.00041555465
3.1818182,0.121212125,0.00038627908,0.0001437962,-0.8577405,-16.068304,5.8602047,0.00041217578
3.1818182,0.16161616,0.00039959326,0.00010237843,-1.0392401,-18.537909,6.1768556,0.00041249985
3.1818182,0.2020202,0.00041457638,5.5104494e-05,-1.1421282,-20.974041,6.468008,0.00041822254
3.1818182,0.24242425,0.0004308559,1.9781291e-06,-1.1710923,-23.379547,6.7351213,0.00043086044
3.1818182,0.28282827,0.00044818595,-5.703047e-05,-1.1324366,-25.758503,6.979721,0.00045179986
3.1818182,0.32323232,0.00046658143,-0.00012191199,-1.0298096,-28.113802,7.203729,0.00048224555
3.1818182,0.36363637,0.0004856214,-0.00019273907,-0.869918,-30.449623,7.4093757,0.0005224715
3.1818182,0.4040404,0.00050517544,-0.0002693981,-0.65890115,-32.769844,7.598687,0.0005725186
3.1818182,0.44444445,0.0005250387,-0.00035198405,-0.40264365,-35.078552,7.774474,0.0006321063
3.1818182,0.4848485,0.00054517016,-0.00044050626,-0.10771887,-37.38002,7.9394774,0.0007008968
3.1818182,0.5252525,0.0005652569,-0.0005350355,0.21921733,-39.678257,8.0964985,0.0007783177
3.1818182,0.56565654,0.0005853027,-0.0006354712,0.5709013,-41.9776,8.248427,0.0008639461
3.1818182,0.6060606,0.00060517713,-0.0007420257,0.94143444,-44.282448,8.398448,0.0009575184
3.1818182,0.64646465,0.0006246455,-0.00085458905,1.3229067,-46.596825,8.549313,0.0010585388
3.1818182,0.68686867,0.00064396486,-0.00097326003,1.7089831,-48.924442,8.704391,0.0011670158
3.1818182,0.72727275,0.00066275895,-0.0010980144,2.0929656,-51.268997,8.86667,0.0012825307
3.1818182,0.7676768,0.00068124384,-0.001228964,2.4679835,-53.63433,9.039132,0.0014051496
3.1818182,0.8080808,0.0006991364,-0.0013661422,2.8270352,-56.023666,9.22429,0.0015346453
3.1818182,0.8484849,0.0007168725,-0.0015096143,3.16394,-58.44048,9.425281,0.0016711797
3.1818182,0.8888889,0.0007342063,-0.001659317,3.473063,-60.885887,9.644344,0.0018144948
3.1818182,0.9292929,0.0007510781,-0.001815388,3.7482285,-63.363014,9.884083,0.0019646252
3.1818182,0.969697,0.00076778606,-0.0019778311,3.984403,-65.87319,10.14657,0.0021216294
3.1818182,1.010101,0.00078426674,-0.0021466892,4.175927,-68.41764,10.433699,0.0022854647
3.1818182,1.050505,0.00080066547,-0.0023220032,4.3188124,-70.99622,10.74725,0.0024561686
3.1818182,1.0909091,0.00081710145,-0.0025038514,4.4085717,-73.610146,11.088498,0.0026338047
3.1818182,1.1313131,0.00083358213,-0.0026922002,4.4416766,-76.25816,11.458538,0.0028182976
3.1818182,1.1717172,0.0008502677,-0.002887044,4.4155703,-78.938576,11.858464,0.0030096476
3.1818182,1.2121212,0.0008672215,-0.003088396,4.32659,-81.650444,12.288566,0.003207844
3.1818182,1.2525252,0.0008846931,-0.0032964237,4.1725326,-84.39214,12.749293,0.0034130765
3.1818182,1.2929293,0.0009025708,-0.0035108868,3.9534476,-87.159,13.24082,0.0036250462
3.1818182,1.3333334,0.0009211786,-0.0037319735,3.6672773,-89.94948,13.762567,0.0038439818
3.1818182,1.3737373,0.00094042346,-0.0039595366,3.3131588,-92.75902,14.314104,0.0040696836
3.1818182,1.4141414,0.0009604879,-0.0041936543,2.8916457,-95.583916,14.894642,0.0043022404
3.1818182,1.4545455,0.0009814166,-0.0044341832,2.4029465,-98.419365,15.503301,0.004541493
3.1818182,1.4949495,0.0010033362,-0.0046811756,1.8484279,-101.26082,16.138985,0.004787493
3.1818182,1.5353535,0.0010261685,-0.004934516,1.2276331,-104.10404,16.800158,0.0050400863
3.1818182,1.5757576,0.001050014,-0.0051940773,0.5437927,-106.942696,17.485308,0.005299148
3.1818182,1.6161616,0.0010748394,-0.0054598637,-0.20249549,-109.772964,18.192907,0.0055646556
3.1818182,1.6565657,0.0011005886,-0.005731754,-1.00875,-112.58912,18.92124,0.0058364626
3.1818182,1.6969697,0.0011273734,-0.006009657,-1.873456,-115.386925,19.668726,0.0061144866
3.1818182,1.7373737,0.0011549406,-0.0062934905,-2.7942767,-118.1612,20.433489,0.0063985866
3.1818182,1.7777778,0.0011832863,-0.00658305,-3.7692707,-120.90746,21.213829,0.006688551
3.1818182,1.8181819,0.001212325,-0.006878281,-4.79739,-123.62283,22.008234,0.006984303
3.1818182,1.8585858,0.0012417696,-0.0071789287,-5.8757205,-126.30194,22.815096,0.007285534
3.1818182,1.8989899,0.0012715273,-0.007485034,-7.004242,-128.94319,23.632992,0.007592267
3.1818182,1.939394,0.0013013743,-0.0077963304,-8.181382,-131.54369,24.46056,0.007904198
3.1818182,1.979798,0.0013311692,-0.008112637,-9.406946,-134.10019,25.29713,0.008221125
3.1818182,2.020202,0.0013605282,-0.008433979,-10.680122,-136.61221,26.14136,0.008543012
3.1818182,2.060606,0.0013892688,-0.008759841,-12.001562,-139.07767,26.99309,0.008869323
3.1818182,2.10101,0.0014168993,-0.009090437,-13.373541,-141.4967,27.851538,0.009200198
3.1818182,2.1414142,0.0014432967,-0.009425405,-14.795099,-143.86755,28.716898,0.00953527
3.1818182,2.1818182,0.0014679991,-0.009764612,-16.269495,-146.1908,29.589504,0.009874344
3.1818182,2.2222223,0.0014906973,-0.0101078935,-17.80061,-148.46773,30.46922,0.010217225
3.1818182,2.2626262,0.0015109666,-0.010454943,-19.389458,-150.69691,31.357452,0.010563563
3.1818182,2.3030303,0.0015283413,-0.010805832,-21.040897,-152.87927,32.25441,0.010913379
3.1818182,2.3434343,0.0015426241,-0.011160182,-22.759193,-155.01608,33.16219,0.011266292
3.1818182,2.3838384,0.0015531667,-0.011517879,-24.5486,-157.1068,34.08148,0.011622128
3.1818182,2.4242425,0.0015596561,-0.0118786935,-26.414526,-159.15079,35.014732,0.011980646
3.1818182,2.4646466,0.0015616305,-0.012242487,-28.362762,-161.14941,35.96313,0.012341684
3.1818182,2.5050504,0.0015587099,-0.012609106,-30.398712,-163.102,36.92931,0.012705082
3.1818182,2.5454545,0.0015505478,-0.012978207,-32.529152,-165.00679,37.915474,0.013070503
3.1818182,2.5858586,0.0015365593,-0.013349598,-34.759834,-166.86284,38.92422,0.013437738
3.1818182,2.6262627,0.00151648,-0.013723079,-37.097324,-168.66798,39.957527,0.013806615
3.1818182,2.6666667,0.0014898889,-0.014098452,-39.549297,-170.42088,41.01863,0.014176957
3.1818182,2.7070708,0.0014563538,-0.014475353,-42.121918,-172.11919,42.109818,0.01454843
3.1818182,2.7474747,0.0014156587,-0.01485366,-44.822422,-173.76067,43.23463,0.014920969
3.1818182,2.7878788,0.0013672821,-0.015232943,-47.6578,-175.34215,44.394863,0.015294182
3.1818182,2.8282828,0.001310993,-0.015612982,-50.635216,-176.86162,45.593483,0.015667927
3.1818182,2.868687,0.001246471,-0.015993442,-53.76176,-178.31708,46.83294,0.01604194
3.1818182,2.909091,0.0011733659,-0.016374145,-57.045204,-179.70842,48.115196,0.016416132
3.1818182,2.9494948,0.001091443,-0.016754534,-60.490723,-181.03156,49.44249,0.016790047
3.1818182,2.989899,0.001000274,-0.017134361,-64.106285,-182.28958,50.81526,0.017163534
3.1818182,3.030303,0.0008996539,-0.017513365,-67.89844,-183.48262,52.23474,0.017536456
3.1818182,3.070707,0.0007892363,-0.017891128,-71.87172,-184.61261,53.69927,0.017908527
3.1818182,3.1111112,0.0006685965,-0.018267274,-76.031906,-185.68329,55.207085,0.018279506
3.1818182,3.1515152,0.00053749233,-0.018641535,-80.38211,-186.6995,56.754944,0.018649282
3.1818182,3.191919,0.00039524958,-0.019013513,-84.92429,-187.66605,58.335964,0.01901762
3.1818182,3.2323232,0.00024138764,-0.019382983,-89.65895,-188.59216,59.942,0.019384487
3.1818182,3.2727273,7.54185e-05,-0.019749627,-94.58259,-189.48387,61.561287,0.01974977
3.1818182,3.3131313,-0.00010373071,-0.0201132,-99.68887,-190.34888,63.177006,0.020113468
3.1818182,3.3535354,-0.00029694661,-0.020473316,-104.966675,-191.1939,64.76821,0.02047547
3.1818182,3.3939395,-0.0005052388,-0.020829841,-110.39977,-192.02605,66.30911,0.020835968
3.1818182,3.4343433,-0.00073026493,-0.021182656,-115.96409,-192.84895,67.76537,0.02119524
3.1818182,3.4747474,-0.00097377226,-0.021531548,-121.62995,-193.66296,69.09599,0.021553557
3.1818182,3.5151515,-0.001237832,-0.021876462,-127.358345,-194.4667,70.2521,0.021911453
3.1818182,3.5555556,-0.0015251301,-0.022217292,-133.09755,-195.24965,71.17231,0.022269579
3.1818182,3.5959597,-0.001838658,-0.022553999,-138.78792,-195.99785,71.78666,0.02262882
3.1818182,3.6363637,-0.0021822564,-0.022886578,-144.35637,-196.68813,72.01162,0.022990383
3.1818182,3.6767676,-0.0025601834,-0.023214929,-149.7168,-197.28781,71.75113,0.023355672
3.1818182,3.7171717,-0.0029776506,-0.023539182,-154.77106,-197.75555,70.89608,0.023726769
3.1818182,3.7575758,-0.0034405328,-0.023859233,-159.40886,-198.03986,69.323166,0.024106022
3.1818182,3.7979798,-0.0039558895,-0.024175085,-163.50801,-198.0761,66.89352,0.024496607
3.1818182,3.838384,-0.004531391,-0.024486717,-166.93901,-197.79366,63.45695,0.024902467
3.1818182,3.878788,-0.0051763467,-0.024794012,-169.56541,-197.109,58.849106,0.025328593
3.1818182,3.9191918,-0.005900901,-0.025096688,-171.25026,-195.93195,52.89604,0.025781088
3.1818182,3.959596,-0.0067162924,-0.025394626,-171.86671,-194.17116,45.41643,0.026267769
3.1818182,4.0,-0.00763553,-0.025687378,-171.29535,-191.73013,36.22321,0.026798185
3.2323232,0.04040404,0.00037924573,0.00024299882,-0.15045156,-10.80925,5.2598114,0.0004504173
3.2323232,0.08080808,0.00039084256,0.00021373853,-0.49246573,-13.317343,5.661632,0.00044546838
3.2323232,0.121212125,0.00040468574,0.00017873384,-0.74945915,-15.785899,6.0359926,0.0004423984
3.2323232,0.16161616,0.00042071566,0.00013791211,-0.9254237,-18.218393,6.383691,0.00044274307
3.2323232,0.2020202,0.00043855235,9.135902e-05,-1.0246239,-20.616913,6.7057004,0.00044796724
3.2323232,0.24242425,0.00045783073,3.9044768e-05,-1.0514562,-22.985216,7.0032024,0.0004594926
3.2323232,0.28282827,0.0004784912,-1.9073486e-05,-1.0114884,-25.326212,7.277687,0.0004788712
3.2323232,0.32323232,0.00050018355,-8.3032995e-05,-0.909078,-27.643698,7.5308747,0.00050702866
3.2323232,0.36363637,0.00052279234,-0.00015269779,-0.75046074,-29.941212,7.765127,0.00054463604
3.2323232,0.4040404,0.00054602325,-0.0002281852,-0.5412087,-32.222473,7.9826174,0.00059178536
3.2323232,0.44444445,0.0005697012,-0.00030954555,-0.2875755,-34.49184,8.185806,0.00064836553
3.2323232,0.4848485,0.0005936511,-0.00039669313,0.0037745428,-36.753456,8.377468,0.0007139937
3.2323232,0.5252525,0.00061777607,-0.0004897509,0.32701173,-39.011322,8.560454,0.0007883547
3.2323232,0.56565654,0.000641834,-0.0005886648,0.6747633,-41.269455,8.737699,0.0008709059
3.2323232,0.6060606,0.0006658621,-0.0006934758,1.0403366,-43.532646,8.912222,0.0009613954
3.2323232,0.64646465,0.00068962947,-0.0008042753,1.4176179,-45.804073,9.087145,0.0010594563
3.2323232,0.68686867,0.0007130094,-0.0009209886,1.7988434,-48.08844,9.265584,0.0011647329
3.2323232,0.72727275,0.00073611736,-0.0010437537,2.1773553,-50.389313,9.450559,0.0012772199
3.2323232,0.7676768,0.0007587187,-0.001172645,2.5466745,-52.71031,9.644974,0.0013966927
3.2323232,0.8080808,0.0007809438,-0.0013075732,2.9001923,-55.054707,9.851884,0.0015230301
3.2323232,0.8484849,0.00080274045,-0.001448635,3.231237,-57.425385,10.074024,0.0016561811
3.2323232,0.8888889,0.000824146,-0.0015958641,3.53362,-59.82495,10.3139105,0.0017961066
3.2323232,0.9292929,0.00084510073,-0.0017493367,3.8020024,-62.255222,10.574284,0.0019427749
3.2323232,0.969697,0.00086573884,-0.0019091088,4.030661,-64.718124,10.857194,0.0020962348
3.2323232,1.010101,0.00088621676,-0.0020751525,4.2141795,-67.21469,11.164791,0.0022564658
3.2323232,1.050505,0.0009063892,-0.002247449,4.3480887,-69.745125,11.498646,0.0024233384
3.2323232,1.0909091,0.00092646107,-0.0024261922,4.427794,-72.31002,11.860471,0.0025970635
3.2323232,1.1313131,0.0009464808,-0.0026112683,4.449719,-74.90815,12.251405,0.0027775075
3.2323232,1.1717172,0.0009665638,-0.0028027073,4.4107046,-77.53861,12.672564,0.0029646945
3.2323232,1.2121212,0.0009867959,-0.003000645,4.3080964,-80.199265,13.124521,0.0031587395
3.2323232,1.2525252,0.0010072254,-0.0032049585,4.138964,-82.888275,13.6074295,0.0033595033
3.2323232,1.2929293,0.0010280833,-0.0034156777,3.9020143,-85.60242,14.121645,0.0035670449
3.2323232,1.3333334,0.0010493658,-0.003632797,3.596162,-88.338234,14.66716,0.0037813203
3.2323232,1.3737373,0.0010711625,-0.0038562827,3.220323,-91.09175,15.243214,0.0040022875
3.2323232,1.4141414,0.0010935701,-0.0040861517,2.774786,-93.8587,15.849184,0.004229957
3.2323232,1.4545455,0.0011166595,-0.004322227,2.2602928,-96.63322,16.484476,0.0044641434
3.2323232,1.4949495,0.0011404566,-0.0045645647,1.6763637,-99.41165,17.147408,0.0047048796
3.2323232,1.5353535,0.0011650696,-0.0048130695,1.0253022,-102.18809,17.836824,0.004952073
3.2323232,1.5757576,0.0011904053,-0.0050676614,0.30802488,-104.956635,18.551554,0.0052055987
3.2323232,1.6161616,0.0012166351,-0.0053282417,-0.47347006,-107.71208,19.289711,0.0054653785
3.2323232,1.6565657,0.0012435205,-0.0055946875,-1.3181549,-110.448784,20.049324,0.0057312194
3.2323232,1.6969697,0.0012711957,-0.0058668423,-2.2225542,-113.16122,20.829082,0.0060029808
3.2323232,1.7373737,0.0012994967,-0.006144719,-3.185311,-115.844246,21.626976,0.006280626
3.2323232,1.7777778,0.0013283379,-0.006428046,-4.2041154,-118.49262,22.441137,0.00656386
3.2323232,1.8181819,0.0013575591,-0.006716745,-5.27718,-121.10219,23.26969,0.006852564
3.2323232,1.8585858,0.0013871044,-0.007010659,-6.4018464,-123.6676,24.111334,0.0071465657
3.2323232,1.8989899,0.0014167503,-0.007309502,-7.576837,-126.18612,24.964277,0.0074455356
3.2323232,1.939394,0.0014462732,-0.0076132547,-8.800743,-128.6542,25.826914,0.00774941
3.2323232,1.979798,0.0014754497,-0.007921629,-10.072522,-131.06847,26.698086,0.0080578625
3.2323232,2.020202,0.0015040226,-0.008234547,-11.392326,-133.42856,27.576803,0.008370774
3.2323232,2.060606,0.0015317202,-0.008551726,-12.759064,-135.73071,28.462126,0.008687818
3.2323232,2.10101,0.0015582703,-0.008873075,-14.173738,-137.97484,29.35366,0.009008866
3.2323232,2.1414142,0.0015831813,-0.009198282,-15.636429,-140.16026,30.250778,0.009333534
3.2323232,2.1818182,0.0016061999,-0.009527251,-17.150223,-142.28719,31.153181,0.009661698
3.2323232,2.2222223,0.001627069,-0.00985975,-18.71587,-144.35536,32.061813,0.009993099
3.2323232,2.2626262,0.0016451739,-0.010195566,-20.336441,-146.36523,32.97626,0.010327447
3.2323232,2.3030303,0.0016601868,-0.010534549,-22.01581,-148.31812,33.89748,0.010664565
3.2323232,2.3434343,0.0016717575,-0.010876343,-23.756731,-150.21411,34.82662,0.011004073
3.2323232,2.3838384,0.0016793646,-0.011220923,-25.564056,-152.05359,35.764515,0.011345897
3.2323232,2.4242425,0.001682613,-0.011567978,-27.442623,-153.83862,36.712902,0.0116897095
3.2323232,2.4646466,0.0016811453,-0.011917351,-29.396883,-155.56842,37.673283,0.012035343
3.2323232,2.5050504,0.0016743392,-0.012268826,-31.433449,-157.24426,38.64675,0.012382548
3.2323232,2.5454545,0.0016619377,-0.012622133,-33.556786,-158.86465,39.63605,0.012731075
3.2323232,2.5858586,0.0016434416,-0.012977041,-35.773518,-160.43011,40.64287,0.013080692
3.2323232,2.6262627,0.00161843,-0.013333371,-38.08978,-161.93834,41.669292,0.013431236
3.2323232,2.6666667,0.0015864335,-0.013690749,-40.511383,-163.389,42.717384,0.013782358
3.2323232,2.7070708,0.0015471205,-0.014049152,-43.04539,-164.77925,43.78943,0.014134081
3.2323232,2.7474747,0.0015000515,-0.014408108,-45.69706,-166.10681,44.8874,0.014485984
3.2323232,2.7878788,0.0014450513,-0.014767377,-48.47332,-167.36948,46.01395,0.01483791
3.2323232,2.8282828,0.0013814941,-0.015126638,-51.380413,-168.56378,47.17048,0.015189592
3.2323232,2.868687,0.0013092123,-0.015485678,-54.423103,-169.68697,48.358524,0.015540922
3.2323232,2.909091,0.0012278184,-0.015844103,-57.608833,-170.73691,49.579903,0.015891606
3.2323232,2.9494948,0.0011370145,-0.016201518,-60.940838,-171.70963,50.835094,0.016241366
3.2323232,2.989899,0.0010363683,-0.016557667,-64.42666,-172.60522,52.124893,0.016590068
3.2323232,3.030303,0.0009256266,-0.0169122,-68.068184,-173.42073,53.448475,0.016937511
3.2323232,3.070707,0.0008045286,-0.017264675,-71.870514,-174.15665,54.804935,0.01728341
3.2323232,3.1111112,0.0006726347,-0.017614894,-75.83648,-174.81375,56.191532,0.017627731
3.2323232,3.1515152,0.0005294904,-0.017962284,-79.96656,-175.39285,57.603374,0.017970087
3.2323232,3.191919,0.00037470087,-0.018306557,-84.2606,-175.89615,59.035137,0.01831039
3.2323232,3.2323232,0.0002076514,-0.018647425,-88.71634,-176.3278,60.47735,0.018648582
3.2323232,3.2727273,2.7768314e-05,-0.018984448,-93.32695,-176.69026,61.91847,0.018984469
3.2323232,3.3131313,-0.00016570464,-0.019317403,-98.08434,-176.98865,63.343353,0.019318113
3.2323232,3.3535354,-0.00037367642,-0.019645993,-102.97635,-177.22813,64.73241,0.019649547
3.2323232,3.3939395,-0.00059730187,-0.019969843,-107.98145,-177.40892,66.05935,0.019978775
3.2323232,3.4343433,-0.00083807483,-0.020288758,-113.07495,-177.53438,67.29386,0.02030606
3.2323232,3.4747474,-0.0010976009,-0.02060248,-118.22523,-177.60425,68.39754,0.020631697
3.2323232,3.5151515,-0.0013778098,-0.020910986,-123.38607,-177.61002,69.32288,0.020956328
3.2323232,3.5555556,-0.0016812347,-0.021213956,-128.50743,-177.54501,70.01534,0.021280473
3.2323232,3.5959597,-0.0020108558,-0.021511327,-133.52393,-177.39302,70.407104,0.02160511
3.2323232,3.6363637,-0.0023700856,-0.021803029,-138.35799,-177.1304,70.42094,0.02193147
3.2323232,3.6767676,-0.0027631223,-0.022088975,-142.91718,-176.72649,69.9659,0.022261124
3.2323232,3.7171717,-0.0031947345,-0.02236912,-147.09561,-176.13852,68.93926,0.022596102
3.2323232,3.7575758,-0.0036707371,-0.022643398,-150.77225,-175.31483,67.22174,0.022939002
3.2323232,3.7979798,-0.0041976087,-0.022911835,-153.81209,-174.19283,64.68201,0.023293177
3.2323232,3.838384,-0.0047830082,-0.023174219,-156.06659,-172.69669,61.17316,0.023662662
3.2323232,3.878788,-0.0054357313,-0.0234305,-157.3775,-170.74236,56.534412,0.024052765
3.2323232,3.9191918,-0.006165527,-0.023680508,-157.57713,-168.23354,50.595123,0.024469987
3.2323232,3.959596,-0.0069834515,-0.023924086,-156.49973,-165.06865,43.17222,0.02492249
3.2323232,4.0,-0.0079019815,-0.024160843,-153.98344,-161.14163,34.077087,0.025420222
3.2828283,0.04040404,0.0003929995,0.00027517974,-0.040958744,-10.592505,5.3536477,0.00047976297
3.2828283,0.08080808,0.0004068762,0.00024645403,-0.37552464,-13.060411,5.786176,0.0004756972
3.2828283,0.121212125,0.0004231818,0.00021203794,-0.62727845,-15.489187,6.191417,0.00047333172
3.2828283,0.16161616,0.0004417859,0.00017185695,-0.8001561,-17.88164,6.56947,0.00047403545
3.2828283,0.2020202,0.00046238303,0.00012600794,-0.8977661,-20.240273,6.921593,0.00047924533
3.2828283,0.24242425,0.00048470497,7.449463e-05,-0.92486036,-22.568235,7.2488227,0.0004903961
3.2828283,0.28282827,0.0005086176,1.7277896e-05,-0.88585484,-24.868454,7.552581,0.000508911
3.2828283,0.32323232,0.00053359196,-4.5582652e-05,-0.7866589,-27.144905,7.8347774,0.0005355354
3.2828283,0.36363637,0.0005596429,-0.000114163384,-0.6313578,-29.400412,8.097206,0.0005711685
3.2828283,0.4040404,0.00058647245,-0.0001883991,-0.42697668,-31.639614,8.342339,0.00061599043
3.2828283,0.44444445,0.0006138906,-0.0002683811,-0.17888278,-33.865955,8.572611,0.0006699926
3.2828283,0.4848485,0.0006417185,-0.00035404786,0.106914595,-36.083572,8.790715,0.0007329069
3.2828283,0.5252525,0.00066966936,-0.00044544786,0.42307958,-38.29694,8.999432,0.000804289
3.2828283,0.56565654,0.0006977655,-0.00054267235,0.7638412,-40.50979,9.201778,0.0008839513
3.2828283,0.6060606,0.0007257946,-0.00064570643,1.1219425,-42.726894,9.400684,0.0009714497
3.2828283,0.64646465,0.0007536337,-0.0007545408,1.4912282,-44.951515,9.599392,0.0010664406
3.2828283,0.68686867,0.0007811785,-0.00086920895,1.8643153,-47.18823,9.800908,0.0011686591
3.2828283,0.72727275,0.00080838427,-0.000989737,2.234793,-49.440388,10.0084505,0.0012779142
3.2828283,0.7676768,0.0008351952,-0.0011162944,2.5953257,-51.712276,10.224819,0.0013941536
3.2828283,0.8080808,0.0008615218,-0.0012487303,2.9403555,-54.00617,10.453139,0.0015170851
3.2828283,0.8484849,0.0008874014,-0.0013872553,3.2622325,-56.326294,10.696317,0.0016468024
3.2828283,0.8888889,0.0009127967,-0.0015317611,3.555485,-58.674046,10.957006,0.0017831124
3.2828283,0.9292929,0.0009377822,-0.001682356,3.8142326,-61.05186,11.237554,0.001926073
3.2828283,0.969697,0.00096236914,-0.0018390715,4.0327263,-63.46185,11.54076,0.0020756538
3.2828283,1.010101,0.0009865202,-0.0020019263,4.205049,-65.90469,11.868103,0.0022318
3.2828283,1.050505,0.0010103844,-0.0021710154,4.3276043,-68.38096,12.222111,0.0023946157
3.2828283,1.0909091,0.0010339804,-0.0023462866,4.3948236,-70.89082,12.604013,0.0025640156
3.2828283,1.1313131,0.0010574274,-0.0025277901,4.4035754,-73.433655,13.015122,0.0027400504
3.2828283,1.1717172,0.0010808222,-0.0027155038,4.350211,-76.007675,13.45686,0.0029226935
3.2828283,1.2121212,0.0011041462,-0.0029095393,4.2312455,-78.611374,13.929529,0.003112002
3.2828283,1.2525252,0.0011275709,-0.0031098612,4.0448694,-81.24262,14.433779,0.0033079681
3.2828283,1.2929293,0.0011511929,-0.0033162907,3.7890332,-83.897446,14.970055,0.0035104172
3.2828283,1.3333334,0.0011750311,-0.0035290439,3.4626493,-86.57275,15.5379715,0.0037195226
3.2828283,1.3737373,0.0011992566,-0.0037479587,3.0646198,-89.264275,16.137218,0.003935151
3.2828283,1.4141414,0.0012239069,-0.0039730854,2.5946894,-91.96718,16.767345,0.0041573257
3.2828283,1.4545455,0.0012489185,-0.0042042825,2.053113,-94.6764,17.427094,0.0043858625
3.2828283,1.4949495,0.0012744814,-0.0044415016,1.4409115,-97.386215,18.115526,0.00462074
3.2828283,1.5353535,0.001300659,-0.004684685,0.758616,-100.09154,18.831535,0.0048618913
3.2828283,1.5757576,0.0013273619,-0.004933793,0.008056164,-102.78548,19.573313,0.0051092273
3.2828283,1.6161616,0.0013546981,-0.0051885527,-0.8083801,-105.46204,20.339472,0.005362489
3.2828283,1.6565657,0.0013824515,-0.005449051,-1.6899542,-108.115814,21.12791,0.005621684
3.2828283,1.6969697,0.0014107861,-0.0057149325,-2.633412,-110.73969,21.937037,0.0058864905
3.2828283,1.7373737,0.0014395118,-0.0059863087,-3.6367419,-113.32848,22.764992,0.006156954
3.2828283,1.7777778,0.001468502,-0.0062628835,-4.697697,-115.87675,23.60941,0.006432745
3.2828283,1.8181819,0.0014978312,-0.006544482,-5.813723,-118.3785,24.468943,0.006713698
3.2828283,1.8585858,0.0015270971,-0.006830886,-6.9823837,-120.82842,25.341368,0.006999502
3.2828283,1.8989899,0.0015563183,-0.007122023,-8.20224,-123.22374,26.225134,0.007290085
3.2828283,1.939394,0.0015851818,-0.0074176975,-9.470899,-125.55932,27.118216,0.0075851856
3.2828283,1.979798,0.001613494,-0.0077176224,-10.786861,-127.83183,28.019781,0.007884482
3.2828283,2.020202,0.0016409159,-0.008021675,-12.150056,-130.03949,28.92755,0.008187789
3.2828283,2.060606,0.0016673543,-0.00832952,-13.558719,-132.17938,29.841288,0.008494762
3.2828283,2.10101,0.0016922206,-0.008641124,-15.013022,-134.25041,30.75961,0.008805262
3.2828283,2.1414142,0.0017154254,-0.008956073,-16.513191,-136.25154,31.682194,0.009118877
3.2828283,2.1818182,0.001736477,-0.009274242,-18.061281,-138.18292,32.608593,0.009435408
3.2828283,2.2222223,0.0017549433,-0.009595484,-19.657803,-140.0445,33.538166,0.009754647
3.2828283,2.2626262,0.001770582,-0.009919481,-21.305351,-141.83719,34.47161,0.010076263
3.2828283,2.3030303,0.0017828494,-0.010246005,-23.00601,-143.5612,35.409096,0.01039996
3.2828283,2.3434343,0.0017914064,-0.010574842,-24.764133,-145.21889,36.351105,0.010725503
3.2828283,2.3838384,0.0017957427,-0.010905815,-26.582651,-146.8105,37.298767,0.011052669
3.2828283,2.4242425,0.0017954148,-0.011238638,-28.465689,-148.33757,38.252747,0.0113811465
3.2828283,2.4646466,0.0017900132,-0.011573106,-30.418589,-149.80183,39.214344,0.011710718
3.2828283,2.5050504,0.0017790459,-0.011908991,-32.44649,-151.20398,40.185123,0.01204114
3.2828283,2.5454545,0.0017620437,-0.012246102,-34.553272,-152.5441,41.16671,0.012372219
3.2828283,2.5858586,0.001738701,-0.012584167,-36.745956,-153.82286,42.160572,0.012703713
3.2828283,2.6262627,0.0017083585,-0.012922909,-39.02942,-155.03947,43.168293,0.013035339
3.2828283,2.6666667,0.0016706996,-0.013262156,-41.40954,-156.19374,44.1916,0.013366975
3.2828283,2.7070708,0.0016254187,-0.013601564,-43.89235,-157.28389,45.232395,0.01369834
3.2828283,2.7474747,0.0015718639,-0.013940854,-46.48229,-158.30707,46.292118,0.01402919
3.2828283,2.7878788,0.0015098304,-0.0142798405,-49.18647,-159.26161,47.371986,0.014359437
3.2828283,2.8282828,0.0014389157,-0.014618183,-52.009377,-160.1449,48.474125,0.014688831
3.2828283,2.868687,0.0013587177,-0.014955595,-54.954758,-160.95163,49.59881,0.015017188
3.2828283,2.909091,0.0012689084,-0.0152917355,-58.0297,-161.68147,50.747,0.015344292
3.2828283,2.9494948,0.001169093,-0.015626162,-61.23582,-162.32762,51.919277,0.015669834
3.2828283,2.989899,0.0010589436,-0.0159587,-64.577675,-162.88852,53.114483,0.015993794
3.2828283,3.030303,0.000938192,-0.016288914,-68.05765,-163.35966,54.332066,0.016315911
3.2828283,3.070707,0.00080636144,-0.016616412,-71.67806,-163.73923,55.570045,0.016635966
3.2828283,3.1111112,0.00066333264,-0.016940907,-75.439476,-164.02527,56.82564,0.01695389
3.2828283,3.1515152,0.0005083643,-0.017261937,-79.33991,-164.21413,58.093193,0.017269421
3.2828283,3.191919,0.00034112856,-0.017579105,-83.37909,-164.30771,59.366108,0.017582415
3.2828283,3.2323232,0.00016121566,-0.017892089,-87.54834,-164.3018,60.636505,0.017892815
3.2828283,3.2727273,-3.213808e-05,-0.018200494,-91.84347,-164.20007,61.892445,0.018200522
3.2828283,3.3131313,-0.0002395697,-0.018503968,-96.25099,-164.00145,63.118786,0.018505517
3.2828283,3.3535354,-0.00046205148,-0.018802151,-100.75602,-163.70607,64.29642,0.018807828
3.2828283,3.3939395,-0.00070055947,-0.019094765,-105.336845,-163.31398,65.401924,0.019107612
3.2828283,3.4343433,-0.00095647573,-0.019381404,-109.96518,-162.8223,66.40606,0.01940499
3.2828283,3.4747474,-0.0012312531,-0.019661825,-114.60608,-162.2276,67.272934,0.019700339
3.2828283,3.5151515,-0.0015269779,-0.01993585,-119.213776,-161.52205,67.95826,0.019994244
3.2828283,3.5555556,-0.0018457323,-0.020203128,-123.73578,-160.69647,68.41087,0.020287266
3.2828283,3.5959597,-0.0021904968,-0.02046359,-128.1019,-159.73103,68.56793,0.020580495
3.2828283,3.6363637,-0.0025643483,-0.020717014,-132.23306,-158.60403,68.357666,0.020875119
3.2828283,3.6767676,-0.002971314,-0.020963259,-136.03455,-157.28343,67.694115,0.021172788
3.2828283,3.7171717,-0.0034159236,-0.021202177,-139.39473,-155.72842,66.4803,0.021475587
3.2828283,3.7575758,-0.0039035194,-0.021433767,-142.18478,-153.88591,64.60498,0.021786323
3.2828283,3.7979798,-0.004440453,-0.021657873,-144.26067,-151.69424,61.941135,0.022108395
3.2828283,3.838384,-0.005033832,-0.021874305,-145.46306,-149.07907,58.3492,0.02244604
3.2828283,3.878788,-0.0056920387,-0.02208303,-145.61415,-145.95209,53.674828,0.022804813
3.2828283,3.9191918,-0.0064245723,-0.022283778,-144.52603,-142.21538,47.74859,0.023191418
3.2828283,3.959596,-0.0072419047,-0.02247649,-142.00607,-137.76492,40.392822,0.023614354
3.2828283,4.0,-0.008156322,-0.022660699,-137.85184,-132.48102,31.416685,0.024083871
3.3333333,0.04040404,0.00040685758,0.00030550733,0.08349245,-10.3671875,5.429034,0.00050879054
3.3333333,0.08080808,0.00042287633,0.00027717836,-0.24571133,-12.79282,5.8916707,0.0005056207
3.3333333,0.121212125,0.0004416518,0.0002432894,-0.49451715,-15.179265,6.3267794,0.00050422817
3.3333333,0.16161616,0.00046282634,0.00020381622,-0.66608256,-17.529171,6.7345843,0.0005057166
3.3333333,0.2020202,0.00048618764,0.00015882589,-0.7644708,-19.844843,7.1161475,0.00051147246
3.3333333,0.24242425,0.00051146373,0.00010816753,-0.7936732,-22.129486,7.472538,0.0005227766
3.3333333,0.28282827,0.00053836405,5.1984563e-05,-0.7587217,-24.386017,7.8049726,0.0005408681
3.3333333,0.32323232,0.0005666353,-9.754673e-06,-0.66410375,-26.617453,8.115394,0.0005667192
3.3333333,0.36363637,0.0005961135,-7.7134e-05,-0.5154115,-28.82846,8.405588,0.00060108316
3.3333333,0.4040404,0.0006264709,-0.00015007891,-0.3183847,-31.021706,8.67785,0.00064419676
3.3333333,0.44444445,0.0006575249,-0.00022853725,-0.07794902,-33.201145,8.934757,0.00069610943
3.3333333,0.4848485,0.0006891005,-0.0003126748,0.19857487,-35.371387,9.178872,0.00075671985
3.3333333,0.5252525,0.00072094426,-0.00040236488,0.5058156,-37.536003,9.412985,0.0008256259
3.3333333,0.56565654,0.00075290725,-0.00049773604,0.8366523,-39.69942,9.64002,0.00090255775
3.3333333,0.6060606,0.00078487396,-0.0005987715,1.1845767,-41.86599,9.86294,0.0009871953
3.3333333,0.64646465,0.00081673265,-0.00070544146,1.5431852,-44.03895,10.085047,0.0010792126
3.3333333,0.68686867,0.00084831566,-0.0008178782,1.9054087,-46.22343,10.309302,0.0011783736
3.3333333,0.72727275,0.0008795224,-0.00093607977,2.2643714,-48.422646,10.538899,0.0012844474
3.3333333,0.7676768,0.00091037527,-0.0010600463,2.614252,-50.639664,10.776923,0.0013973122
3.3333333,0.8080808,0.00094068423,-0.0011898503,2.947169,-52.878727,11.026273,0.0015167829
3.3333333,0.8484849,0.00097061694,-0.0013255011,3.2576184,-55.142284,11.290116,0.0016428787
3.3333333,0.8888889,0.000999935,-0.0014670324,3.5389462,-57.432976,11.570823,0.0017754025
3.3333333,0.9292929,0.0010287911,-0.0016144924,3.785645,-59.752975,11.871387,0.0019144181
3.3333333,0.969697,0.0010571145,-0.0017679334,3.9913204,-62.104156,12.194098,0.0020598737
3.3333333,1.010101,0.0010849275,-0.0019273777,4.150617,-64.48792,12.540899,0.0022117533
3.3333333,1.050505,0.0011123978,-0.0020928346,4.2594604,-66.90393,12.914098,0.0023701023
3.3333333,1.0909091,0.0011394508,-0.0022642966,4.31219,-69.35302,13.315117,0.002534835
3.3333333,1.1313131,0.0011661611,-0.0024418887,4.3060045,-71.83361,13.745735,0.0027060586
3.3333333,1.1717172,0.0011927523,-0.0026255231,4.23633,-74.34559,14.206816,0.0028837528
3.3333333,1.2121212,0.001219023,-0.0028152857,4.1003056,-76.886284,14.699265,0.003067874
3.3333333,1.2525252,0.0012452453,-0.0030110423,3.8956137,-79.45292,15.223656,0.0032583755
3.3333333,1.2929293,0.001271572,-0.0032129623,3.619988,-82.043076,15.780357,0.0034554338
3.3333333,1.3333334,0.0012977831,-0.0034208372,3.2719946,-84.65204,16.369225,0.0036587387
3.3333333,1.3737373,0.0013242513,-0.0036347695,2.8510728,-87.27587,16.989918,0.003868487
3.3333333,1.4141414,0.0013509281,-0.0038546752,2.3563557,-89.90975,17.642067,0.0040845475
3.3333333,1.4545455,0.0013777949,-0.004080493,1.7887807,-92.54775,18.324554,0.004306825
3.3333333,1.4949495,0.0014049299,-0.0043121018,1.1481225,-95.18437,19.03656,0.004535201
3.3333333,1.5353535,0.0014324412,-0.0045495257,0.43581864,-97.81318,19.776512,0.0047697034
3.3333333,1.5757576,0.001460325,-0.0047925003,-0.34676093,-100.42842,20.543022,0.0050100507
3.3333333,1.6161616,0.0014885105,-0.005041044,-1.1974335,-103.02267,21.334538,0.005256214
3.3333333,1.6565657,0.001516968,-0.005295038,-2.114503,-105.58963,22.148813,0.005508051
3.3333333,1.6969697,0.0015457422,-0.005554175,-3.095048,-108.12245,22.984217,0.005765256
3.3333333,1.7373737,0.0015746765,-0.0058185607,-4.1370296,-110.61521,23.838728,0.006027873
3.3333333,1.7777778,0.0016037077,-0.0060877576,-5.237924,-113.06099,24.710365,0.0062954486
3.3333333,1.8181819,0.0016326904,-0.0063617323,-6.394522,-115.45378,25.59673,0.0065679005
3.3333333,1.8585858,0.0016615279,-0.006640224,-7.6046896,-117.78824,26.495983,0.0068449434
3.3333333,1.8989899,0.0016899444,-0.0069230627,-8.866122,-120.05968,27.40626,0.0071263392
3.3333333,1.939394,0.0017178915,-0.0072101112,-10.176151,-122.26331,28.325573,0.00741194
3.3333333,1.979798,0.0017449372,-0.0075009875,-11.533025,-124.395325,29.25209,0.007701274
3.3333333,2.020202,0.0017709769,-0.0077955946,-12.93562,-126.45221,30.184284,0.007994226
3.3333333,2.060606,0.0017956607,-0.008093679,-14.382177,-128.43208,31.12101,0.008290479
3.3333333,2.10101,0.0018187091,-0.008394966,-15.87206,-130.33235,32.0609,0.008589712
3.3333333,2.1414142,0.0018397272,-0.008699192,-17.4056,-132.15228,33.002773,0.008891599
3.3333333,2.1818182,0.0018583164,-0.009006195,-18.983025,-133.8917,33.946327,0.009195916
3.3333333,2.2222223,0.001874309,-0.009315593,-20.605635,-135.55101,34.8909,0.00950228
3.3333333,2.2626262,0.0018869825,-0.009627257,-22.27395,-137.12982,35.836113,0.009810442
3.3333333,2.3030303,0.0018961988,-0.009941036,-23.99135,-138.63126,36.782185,0.010120265
3.3333333,2.3434343,0.0019012913,-0.010256432,-25.759115,-140.0543,37.72959,0.0104311695
3.3333333,2.3838384,0.0019020028,-0.010573378,-27.581991,-141.40262,38.67844,0.010743088
3.3333333,2.4242425,0.0018977709,-0.010891596,-29.46311,-142.67786,39.629684,0.011055696
3.3333333,2.4646466,0.0018881299,-0.011210877,-31.406767,-143.88248,40.58421,0.011368765
3.3333333,2.5050504,0.001872655,-0.011530852,-33.416348,-145.01547,41.54282,0.0116819255
3.3333333,2.5454545,0.001850795,-0.011851495,-35.498276,-146.08217,42.50673,0.01199514
3.3333333,2.5858586,0.0018222816,-0.012172423,-37.65725,-147.08093,43.47789,0.01230807
3.3333333,2.6262627,0.0017864406,-0.012493331,-39.897766,-148.01324,44.456886,0.012620407
3.3333333,2.6666667,0.0017428733,-0.012814045,-42.22536,-148.87906,45.444866,0.012932029
3.3333333,2.7070708,0.0016912706,-0.0131344125,-44.645958,-149.67851,46.44402,0.013242855
3.3333333,2.7474747,0.0016311258,-0.01345399,-47.163616,-150.40965,47.454865,0.0135525055
3.3333333,2.7878788,0.0015619323,-0.01377256,-49.78327,-151.069,48.478397,0.013860846
3.3333333,2.8282828,0.0014834739,-0.014089875,-52.51012,-151.65599,49.515606,0.014167755
3.3333333,2.868687,0.0013952479,-0.014405588,-55.347206,-152.16579,50.566776,0.014472998
3.3333333,2.909091,0.0012969635,-0.014719449,-58.29924,-152.59557,51.632774,0.014776478
3.3333333,2.9494948,0.0011882223,-0.015031092,-61.369057,-152.94064,52.71234,0.015077984
3.3333333,2.989899,0.001068633,-0.015340213,-64.55771,-153.1957,53.804802,0.015377389
3.3333333,3.030303,0.00093786046,-0.01564636,-67.867,-153.3561,54.908672,0.015674444
3.3333333,3.070707,0.0007954873,-0.015949313,-71.29761,-153.41751,56.02123,0.015969139
3.3333333,3.1111112,0.00064131245,-0.016248565,-74.84717,-153.37448,57.13862,0.016261216
3.3333333,3.1515152,0.00047484413,-0.01654376,-78.514336,-153.22249,58.256172,0.016550574
3.3333333,3.191919,0.00029557198,-0.016834568,-82.29368,-152.95792,59.36653,0.016837163
3.3333333,3.2323232,0.00010301545,-0.017120603,-86.17823,-152.5774,60.46042,0.017120915
3.3333333,3.2727273,-0.000103347,-0.017401371,-90.15815,-152.07588,61.52717,0.017401678
3.3333333,3.3131313,-0.0003243424,-0.017676584,-94.219345,-151.45058,62.552006,0.01767956
3.3333333,3.3535354,-0.0005607046,-0.017945785,-98.34403,-150.69751,63.516296,0.017954541
3.3333333,3.3939395,-0.0008134991,-0.01820859,-102.50912,-149.81242,64.397934,0.018226752
3.3333333,3.4343433,-0.0010838322,-0.018464722,-106.68418,-148.78935,65.16934,0.018496504
3.3333333,3.4747474,-0.0013732575,-0.01871381,-110.83351,-147.62187,65.796936,0.018764127
3.3333333,3.5151515,-0.0016836338,-0.018955417,-114.90952,-146.29904,66.23899,0.01903004
3.3333333,3.5555556,-0.0020169131,-0.019189522,-118.85685,-144.8086,66.44837,0.019295223
3.3333333,3.5959597,-0.0023758188,-0.019415576,-122.60486,-143.12843,66.36657,0.019560397
3.3333333,3.6363637,-0.0027633347,-0.019633468,-126.07376,-141.237,65.92568,0.019826978
3.3333333,3.6767676,-0.0031830706,-0.019843008,-129.16508,-139.10175,65.04697,0.02009669
3.3333333,3.7171717,-0.0036394335,-0.02004395,-131.76523,-136.67944,63.638298,0.020371683
3.3333333,3.7575758,-0.0041374303,-0.020236108,-133.74384,-133.9222,61.59576,0.020654744
3.3333333,3.7979798,-0.0046827905,-0.020419396,-134.95128,-130.76729,58.801147,0.02094947
3.3333333,3.838384,-0.0052825212,-0.020593662,-135.21632,-127.13745,55.118095,0.021260384
3.3333333,3.878788,-0.0059444644,-0.02075857,-134.35568,-122.95014,50.401997,0.021592936
3.3333333,3.9191918,-0.006677594,-0.020914,-132.16348,-118.10381,44.488403,0.021954171
3.3333333,3.959596,-0.00749195,-0.02105977,-128.42455,-112.48823,37.20479,0.022352701
3.3333333,4.0,-0.008399107,-0.02119555,-122.913536,-105.98485,28.363417,0.022799043
3.3838384,0.04040404,0.00042077526,0.0003337823,0.21978989,-10.134228,5.486803,0.000537087
3.3838384,0.08080808,0.00043898076,0.0003059581,-0.10607884,-12.51514,5.978585,0.0005350836
3.3838384,0.121212125,0.00046003982,0.00027267635,-0.35372066,-14.856707,6.4427996,0.00053477945
3.3838384,0.16161616,0.00048371777,0.00023391843,-0.52626246,-17.16133,6.8795667,0.00053730875
3.3838384,0.2020202,0.0005098693,0.00018964708,-0.62712234,-19.431423,7.289806,0.000543997
3.3838384,0.24242425,0.0005379282,0.00013993122,-0.6610344,-21.669727,7.674464,0.0005558304
3.3838384,0.28282827,0.0005679168,8.478016e-05,-0.6317339,-23.879246,8.034957,0.00057421
3.3838384,0.32323232,0.0005993806,2.4171546e-05,-0.54462975,-26.063461,8.372877,0.0005998678
3.3838384,0.36363637,0.00063213333,-4.1808933e-05,-0.40425554,-28.225483,8.690263,0.0006335144
3.3838384,0.4040404,0.0006659962,-0.00011331588,-0.21638978,-30.36935,8.989219,0.0006755675
3.3838384,0.44444445,0.0007005371,-0.0001902394,0.01312023,-32.498398,9.272049,0.00072590855
3.3838384,0.4848485,0.00073573366,-0.00027268566,0.27832383,-34.61746,9.541544,0.000784641
3.3838384,0.5252525,0.00077136233,-0.00036058947,0.573754,-36.72959,9.800379,0.0008514838
3.3838384,0.56565654,0.0008071698,-0.00045398064,0.8921908,-38.8395,10.051562,0.0009260786
3.3838384,0.6060606,0.0008429624,-0.00055285916,1.2273359,-40.95088,10.2981825,0.0010080867
3.3838384,0.64646465,0.0008786991,-0.00065730326,1.5727402,-43.0684,10.5429,0.0010973421
3.3838384,0.68686867,0.0009142123,-0.00076731294,1.9217678,-45.19535,10.789447,0.0011935465
3.3838384,0.72727275,0.00094936416,-0.00088291615,2.267261,-47.33626,11.040642,0.0012964696
3.3838384,0.7676768,0.0009841584,-0.0010041241,2.6031368,-49.494038,11.299722,0.001405999
3.3838384,0.8080808,0.0010183565,-0.0011310708,2.9221358,-51.672733,11.569434,0.0015219629
3.3838384,0.8484849,0.0010522045,-0.0012636222,3.218775,-53.874615,11.853143,0.0016443465
3.3838384,0.8888889,0.0010852553,-0.001401946,3.4858944,-56.102673,12.153448,0.0017729161
3.3838384,0.9292929,0.0011178516,-0.001545947,3.717928,-58.359222,12.473038,0.001907759
3.3838384,0.969697,0.0011498667,-0.0016958471,3.908788,-60.646076,12.814385,0.0020489243
3.3838384,1.010101,0.0011812709,-0.0018514954,4.05352,-62.96397,13.179776,0.0021962323
3.3838384,1.050505,0.0012120903,-0.002013078,4.14654,-65.314156,13.57112,0.0023498181
3.3838384,1.0909091,0.0012425147,-0.0021804292,4.1838894,-67.69613,13.9904175,0.0025096044
3.3838384,1.1313131,0.001272358,-0.0023536868,4.160584,-70.10942,14.439025,0.0026755815
3.3838384,1.1717172,0.0013018884,-0.0025328752,4.073504,-72.55275,14.918287,0.002847871
3.3838384,1.2121212,0.0013310984,-0.002717929,3.9192653,-75.0239,15.429067,0.0030263774
3.3838384,1.2525252,0.0013600029,-0.0029088631,3.6955998,-77.52049,15.971938,0.003211089
3.3838384,1.2929293,0.0013887137,-0.0031057242,3.3998928,-80.03928,16.547417,0.0034020655
3.3838384,1.3333334,0.0014173277,-0.0033084154,3.0303032,-82.57663,17.15534,0.0035992262
3.3838384,1.3737373,0.001445815,-0.0035169162,2.5865424,-85.12697,17.795689,0.0038025097
3.3838384,1.4141414,0.0014743358,-0.0037311614,2.0679288,-87.68599,18.467619,0.004011886
3.3838384,1.4545455,0.0015028566,-0.003951067,1.4742007,-90.247795,19.170652,0.004227234
3.3838384,1.4949495,0.0015314147,-0.004176624,0.80619735,-92.80619,19.903429,0.00444853
3.3838384,1.5353535,0.0015600584,-0.0044076927,0.06518474,-95.35441,20.664772,0.0046756323
3.3838384,1.5757576,0.0015888363,-0.0046442,-0.74781287,-97.886536,21.453043,0.0049084616
3.3838384,1.6161616,0.0016177632,-0.004886009,-1.6301323,-100.394226,22.266872,0.005146867
3.3838384,1.6565657,0.0016466342,-0.005132828,-2.580669,-102.87139,23.103848,0.005390485
3.3838384,1.6969697,0.0016756244,-0.005384816,-3.5960379,-105.31089,23.962257,0.0056395
3.3838384,1.7373737,0.0017045587,-0.005641509,-4.6737504,-107.70451,24.839886,0.005893398
3.3838384,1.7777778,0.0017332844,-0.005902972,-5.8116674,-110.04693,25.734665,0.006152183
3.3838384,1.8181819,0.001761768,-0.0061687715,-7.005726,-112.330284,26.644224,0.0064154165
3.3838384,1.8585858,0.0017897896,-0.0064388104,-8.253723,-114.5489,27.566229,0.006682935
3.3838384,1.8989899,0.0018171929,-0.006712865,-9.553519,-116.697945,28.498568,0.0069544767
3.3838384,1.939394,0.0018438697,-0.0069907624,-10.900753,-118.77076,29.439573,0.007229842
3.3838384,1.979798,0.0018694028,-0.0072721764,-12.294478,-120.76391,30.386578,0.0075086094
3.3838384,2.020202,0.0018937401,-0.007556878,-13.732327,-122.673515,31.338375,0.007790549
3.3838384,2.060606,0.0019164234,-0.007844599,-15.212008,-124.495926,32.292747,0.008075297
3.3838384,2.10101,0.0019373037,-0.008135226,-16.733187,-126.23046,33.248722,0.008362717
3.3838384,2.1414142,0.0019557588,-0.008428203,-18.294767,-127.87408,34.20447,0.008652144
3.3838384,2.1818182,0.0019716956,-0.008723486,-19.896936,-129.42685,35.15923,0.0089435335
3.3838384,2.2222223,0.0019846335,-0.0090208035,-21.539442,-130.88933,36.112293,0.00923654
3.3838384,2.2626262,0.0019942373,-0.009319866,-23.223114,-132.2614,37.063023,0.009530839
3.3838384,2.3030303,0.001999911,-0.009620324,-24.950045,-133.54488,38.01132,0.009826
3.3838384,2.3434343,0.002001375,-0.009921996,-26.722378,-134.74178,38.956635,0.0101218335
3.3838384,2.3838384,0.0019980632,-0.010224646,-28.542912,-135.85432,39.89974,0.010418044
3.3838384,2.4242425,0.0019895323,-0.010527998,-30.414259,-136.88501,40.84058,0.010714335
3.3838384,2.4646466,0.001975458,-0.010831708,-32.340225,-137.83623,41.77987,0.011010374
3.3838384,2.5050504,0.0019550733,-0.011135662,-34.325565,-138.71114,42.71843,0.011305984
3.3838384,2.5454545,0.0019281991,-0.011439489,-36.3733,-139.51164,43.657085,0.011600857
3.3838384,2.5858586,0.0018942021,-0.011743134,-38.4901,-140.24066,44.596615,0.011894924
3.3838384,2.6262627,0.001852613,-0.012046084,-40.678272,-140.89807,45.538116,0.012187711
3.3838384,2.6666667,0.0018031038,-0.0123483185,-42.944668,-141.488,46.482746,0.012479269
3.3838384,2.7070708,0.0017449483,-0.012649383,-45.291943,-142.00665,47.431015,0.012769171
3.3838384,2.7474747,0.0016779453,-0.012949193,-47.727257,-142.45802,48.38445,0.0130574545
3.3838384,2.7878788,0.0016016886,-0.013247428,-50.25339,-142.83826,49.342915,0.013343904
3.3838384,2.8282828,0.0015155859,-0.013543777,-52.874664,-143.14575,50.307114,0.013628312
3.3838384,2.868687,0.0014192834,-0.01383798,-55.593292,-143.37679,51.277115,0.013910574
3.3838384,2.909091,0.0013125166,-0.014129788,-58.41357,-143.52882,52.25261,0.014190616
3.3838384,2.9494948,0.0011948645,-0.01441876,-61.336864,-143.59608,53.233032,0.014468185
3.3838384,2.989899,0.0010659061,-0.014704775,-64.365074,-143.57413,54.21674,0.014743357
3.3838384,3.030303,0.00092528015,-0.014987268,-67.49712,-143.45625,55.201393,0.015015802
3.3838384,3.070707,0.0007726662,-0.015266113,-70.7319,-143.23569,56.183723,0.015285654
3.3838384,3.1111112,0.0006076656,-0.015540734,-74.06762,-142.90688,57.160263,0.015552609
3.3838384,3.1515152,0.00042988732,-0.015810885,-77.49923,-142.46184,58.124622,0.015816728
3.3838384,3.191919,0.00023885816,-0.016076155,-81.020035,-141.89381,59.070282,0.01607793
3.3838384,3.2323232,3.4134835e-05,-0.016336154,-84.621574,-141.19505,59.98769,0.01633619
3.3838384,3.2727273,-0.00018482283,-0.016590435,-88.29215,-140.35951,60.86651,0.016591465
3.3838384,3.3131313,-0.00041883066,-0.016838659,-92.015076,-139.37914,61.690662,0.016843867
3.3838384,3.3535354,-0.00066844,-0.017080292,-95.77245,-138.24594,62.4443,0.017093366
3.3838384,3.3939395,-0.0009348318,-0.017315023,-99.5367,-136.95107,63.10477,0.01734024
3.3838384,3.4343433,-0.0012189932,-0.017542414,-103.27883,-135.48665,63.646183,0.017584717
3.3838384,3.4747474,-0.0015222616,-0.017762102,-106.959435,-133.84035,64.03776,0.017827215
3.3838384,3.5151515,-0.0018464103,-0.017973695,-110.529785,-131.99841,64.23982,0.018068286
3.3838384,3.5555556,-0.0021932572,-0.018176883,-113.93508,-129.94449,64.20871,0.018308725
3.3838384,3.5959597,-0.002565343,-0.018371258,-117.10476,-127.657814,63.889786,0.018549504
3.3838384,3.6363637,-0.0029654615,-0.018556558,-119.955215,-125.1111,63.219875,0.018792015
3.3838384,3.6767676,-0.0033970475,-0.018732458,-122.38961,-122.27062,62.12526,0.019037986
3.3838384,3.7171717,-0.0038639307,-0.01889871,-124.29484,-119.09752,60.521263,0.019289667
3.3838384,3.7575758,-0.004370887,-0.019055102,-125.5382,-115.54026,58.31044,0.019549977
3.3838384,3.7979798,-0.004923541,-0.019201271,-125.96659,-111.53602,55.379417,0.019822463
3.3838384,3.838384,-0.005528204,-0.019337162,-125.407295,-107.01239,51.603886,0.020111859
3.3838384,3.878788,-0.0061922073,-0.019462362,-123.66811,-101.8832,46.843117,0.020423686
3.3838384,3.9191918,-0.006924089,-0.019576691,-120.538895,-96.05361,40.942547,0.02076511
3.3838384,3.959596,-0.00773352,-0.019679923,-115.78597,-89.4078,33.733273,0.021144897
3.3838384,4.0,-0.008631226,-0.019771617,-109.16667,-81.82665,25.034994,0.021573476
3.4343436,0.04040404,0.0004348047,0.00035993755,0.36514124,-9.894257,5.527272,0.00056445564
3.4343436,0.08080808,0.0004550852,0.00033262,0.040631745,-12.2281475,6.047396,0.00056368305
3.4343436,0.121212125,0.00047844276,0.00029990636,-0.2075285,-14.522285,6.5397725,0.0005646692
3.4343436,0.16161616,0.00050463155,0.0002618432,-0.38256788,-16.779099,7.0046287,0.00056851987
3.4343436,0.2020202,0.0005333461,0.00021848269,-0.4882358,-19.000654,7.442711,0.00057636166
3.4343436,0.24242425,0.0005643293,0.00016975589,-0.52847713,-21.18992,7.854973,0.0005893086
3.4343436,0.28282827,0.00059723854,0.00011573173,-0.5073587,-23.349543,8.242731,0.00060834835
3.4343436,0.32323232,0.0006317608,5.6385994e-05,-0.42977738,-25.483013,8.607471,0.0006342721
3.4343436,0.36363637,0.00066772103,-8.307397e-06,-0.30004424,-27.59317,8.951155,0.0006677727
3.4343436,0.4040404,0.000704892,-7.8264624e-05,-0.123920195,-29.684027,9.275932,0.00070922356
3.4343436,0.44444445,0.0007428713,-0.00015356205,0.09306229,-31.75915,9.583969,0.000758577
3.4343436,0.4848485,0.0007816367,-0.00023417361,0.3450953,-33.82265,9.878304,0.0008159615
3.4343436,0.5252525,0.00082087517,-0.00032006204,0.62608886,-35.87826,10.161149,0.00088106515
3.4343436,0.56565654,0.00086033344,-0.00041137636,0.9299194,-37.930405,10.435818,0.0009536268
3.4343436,0.6060606,0.0008998811,-0.0005080383,1.2499378,-39.982887,10.705016,0.0010333871
3.4343436,0.64646465,0.000939358,-0.0006100312,1.5799669,-42.03982,10.972047,0.0011200587
3.4343436,0.68686867,0.000978712,-0.00071747415,1.9133911,-44.105106,11.240087,0.0012135264
3.4343436,0.72727275,0.0010177009,-0.0008302778,2.2432873,-46.182743,11.512139,0.0013134216
3.4343436,0.7676768,0.0010562725,-0.00094862655,2.563247,-48.27619,11.7912855,0.0014197197
3.4343436,0.8080808,0.0010943003,-0.0010723788,2.866658,-50.388783,12.080791,0.001532152
3.4343436,0.8484849,0.0011317246,-0.0012016371,3.1468203,-52.524124,12.383344,0.0016506762
3.4343436,0.8888889,0.0011685304,-0.0013364609,3.397636,-54.6842,12.70214,0.0017752722
3.4343436,0.9292929,0.001204703,-0.001476869,3.6134667,-56.87168,13.039708,0.0019058991
3.4343436,0.969697,0.0012402199,-0.0016229041,3.7879317,-59.088478,13.39873,0.0020425385
3.4343436,1.010101,0.0012751222,-0.001774488,3.916088,-61.335106,13.781452,0.0021851189
3.4343436,1.050505,0.0013092346,-0.0019318387,3.992375,-63.613445,14.189739,0.0023336872
3.4343436,1.0909091,0.0013427995,-0.0020947717,4.012628,-65.922195,14.625861,0.002488208
3.4343436,1.1313131,0.0013757087,-0.0022634193,3.9721289,-68.26153,15.091075,0.0026487056
3.4343436,1.1717172,0.0014081113,-0.0024377163,3.866868,-70.63023,15.586931,0.00281518
3.4343436,1.2121212,0.001440011,-0.002617726,3.6939342,-73.02634,16.114294,0.0029876614
3.4343436,1.2525252,0.0014713705,-0.002803471,3.4504392,-75.44688,16.673714,0.0031661303
3.4343436,1.2929293,0.0015024431,-0.0029948931,3.13457,-77.888794,17.265846,0.00335063
3.4343436,1.3333334,0.001533132,-0.003191894,2.7439315,-80.3475,17.890871,0.003541
3.4343436,1.3737373,0.0015634857,-0.0033945423,2.2777889,-82.81939,18.54836,0.0037372992
3.4343436,1.4141414,0.0015937351,-0.0036026947,1.736095,-85.29787,19.237951,0.003939467
3.4343436,1.4545455,0.0016236715,-0.0038162898,1.1178054,-87.7783,19.958736,0.0041473336
3.4343436,1.4949495,0.0016535074,-0.0040352717,0.4241525,-90.25332,20.709724,0.0043609063
3.4343436,1.5353535,0.0016831793,-0.0042596236,-0.34402406,-92.71707,21.489614,0.0045801187
3.4343436,1.5757576,0.0017126724,-0.004489064,-1.1849647,-95.1616,22.296677,0.004804679
3.4343436,1.6161616,0.0017420985,-0.0047236364,-2.0968056,-97.579865,23.129572,0.0050346446
3.4343436,1.6565657,0.0017712303,-0.004962988,-3.078348,-99.96432,23.985773,0.0052695833
3.4343436,1.6969697,0.0018001609,-0.005207142,-4.1253605,-102.30745,24.86359,0.005509529
3.4343436,1.7373737,0.0018287972,-0.0054558236,-5.2357545,-104.601204,25.76084,0.0057541733
3.4343436,1.7777778,0.0018569231,-0.005708834,-6.4067154,-106.838684,26.674482,0.006003245
3.4343436,1.8181819,0.001884643,-0.005966034,-7.634379,-109.01239,27.60315,0.0062566316
3.4343436,1.8585858,0.0019116588,-0.0062271915,-8.916649,-111.116425,28.54376,0.0065140123
3.4343436,1.8989899,0.0019377843,-0.006491933,-10.248999,-113.142525,29.494198,0.006774969
3.4343436,1.939394,0.001962874,-0.0067602135,-11.62972,-115.08768,30.452059,0.0070394147
3.4343436,1.979798,0.0019866787,-0.007031655,-13.055207,-116.94465,31.415102,0.007306919
3.4343436,2.020202,0.0020089634,-0.0073059797,-14.523313,-118.710365,32.38135,0.007577155
3.4343436,2.060606,0.0020293556,-0.0075829774,-16.031786,-120.38089,33.34868,0.00784983
3.4343436,2.10101,0.0020476095,-0.007862348,-17.57859,-121.953735,34.315105,0.008124607
3.4343436,2.1414142,0.0020633936,-0.008143807,-19.163082,-123.42746,35.279694,0.0084011415
3.4343436,2.1818182,0.0020763092,-0.008427117,-20.783674,-124.80076,36.240356,0.008679134
3.4343436,2.2222223,0.0020860024,-0.008711904,-22.44058,-126.07385,37.19647,0.008958163
3.4343436,2.2626262,0.0020920448,-0.0089979,-24.133684,-127.246605,38.146767,0.009237903
3.4343436,2.3030303,0.0020939633,-0.009284876,-25.864784,-128.32167,39.09112,0.009518067
3.4343436,2.3434343,0.0020914674,-0.009572566,-27.634893,-129.30116,40.02839,0.00979838
3.4343436,2.3838384,0.0020839162,-0.009860609,-29.446182,-130.1872,40.959366,0.010078408
3.4343436,2.4242425,0.0020708703,-0.010148857,-31.301186,-130.98326,41.883232,0.0103579825
3.4343436,2.4646466,0.0020519346,-0.010436859,-33.202877,-131.69225,42.800877,0.010636657
3.4343436,2.5050504,0.0020266213,-0.010724587,-35.15578,-132.3185,43.712296,0.010914393
3.4343436,2.5454545,0.0019944012,-0.011011634,-37.16248,-132.8643,44.61842,0.011190788
3.4343436,2.5858586,0.0019547231,-0.011297757,-39.228134,-133.33408,45.519745,0.011465612
3.4343436,2.6262627,0.0019072257,-0.011582769,-41.356537,-133.73044,46.41666,0.011738742
3.4343436,2.6666667,0.0018513836,-0.011866413,-43.552242,-134.0545,47.31027,0.01200997
3.4343436,2.7070708,0.0017867349,-0.0121483095,-45.820026,-134.30862,48.201275,0.012279
3.4343436,2.7474747,0.0017128475,-0.012428477,-48.16413,-134.49481,49.089928,0.012545952
3.4343436,2.7878788,0.0016292669,-0.012706462,-50.58759,-134.61044,49.97674,0.012810492
3.4343436,2.8282828,0.0015355907,-0.012982041,-53.094337,-134.6559,50.861713,0.013072545
3.4343436,2.868687,0.0014313757,-0.013254916,-55.687668,-134.6278,51.744637,0.013331979
3.4343436,2.909091,0.0013161115,-0.013524907,-58.36878,-134.52356,52.624775,0.013588792
3.4343436,2.9494948,0.0011896379,-0.013791658,-61.13951,-134.33788,53.50085,0.0138428705
3.4343436,2.989899,0.0010514371,-0.014054906,-64.00096,-134.06683,54.371525,0.0140941795
3.4343436,3.030303,0.00090122595,-0.014314387,-66.95078,-133.70128,55.23382,0.01434273
3.4343436,3.070707,0.00073851645,-0.014569597,-69.98831,-133.23581,56.08392,0.014588303
3.4343436,3.1111112,0.0005630292,-0.014820371,-73.107895,-132.66103,56.917927,0.0148310615
3.4343436,3.1515152,0.00037434325,-0.01506621,-76.30555,-131.96805,57.72988,0.01507086
3.4343436,3.191919,0.0001719892,-0.015306875,-79.57169,-131.14752,58.512142,0.015307842
3.4343436,3.2323232,-4.4401735e-05,-0.015541833,-82.896675,-130.18883,59.255768,0.015541896
3.4343436,3.2727273,-0.00027545542,-0.01577077,-86.267006,-129.08267,59.949024,0.015773175
3.4343436,3.3131313,-0.0005218424,-0.015993237,-89.66523,-127.81626,60.578743,0.016001748
3.4343436,3.3535354,-0.00078416616,-0.016208887,-93.06985,-126.379074,61.126743,0.016227843
3.4343436,3.3939395,-0.0010633729,-0.016417116,-96.45432,-124.75807,61.57283,0.016451519
3.4343436,3.4343433,-0.0013604909,-0.0166177,-99.78582,-122.94024,61.893158,0.016673299
3.4343436,3.4747474,-0.0016768314,-0.016810007,-103.02576,-120.90941,62.056286,0.016893433
3.4343436,3.5151515,-0.0020138621,-0.016993798,-106.12471,-118.649254,62.027298,0.01711271
3.4343436,3.5555556,-0.0023734048,-0.017168641,-109.025375,-116.13887,61.763897,0.017331915
3.4343436,3.5959597,-0.0027576946,-0.017334022,-111.65844,-113.35509,61.215588,0.017552014
3.4343436,3.6363637,-0.0031694286,-0.01748956,-113.94099,-110.267456,60.323742,0.01777442
3.4343436,3.6767676,-0.0036115386,-0.017635025,-115.77754,-106.84198,59.020573,0.018001037
3.4343436,3.7171717,-0.0040878914,-0.017770018,-117.05365,-103.03782,57.22594,0.018234156
3.4343436,3.7575758,-0.0046028458,-0.017894126,-117.636185,-98.8016,54.848717,0.018476633
3.4343436,3.7979798,-0.0051614456,-0.0180071,-117.37583,-94.074814,51.785553,0.018732222
3.4343436,3.838384,-0.005769741,-0.018108584,-116.0987,-88.78482,47.917686,0.019005544
3.4343436,3.878788,-0.0064345263,-0.018198334,-113.60832,-82.846985,43.11294,0.019302396
3.4343436,3.9191918,-0.0071638077,-0.018275917,-109.69092,-76.16499,37.22602,0.019629806
3.4343436,3.959596,-0.007966589,-0.018341191,-104.10808,-68.63015,30.09547,0.019996647
3.4343436,4.0,-0.008853331,-0.018393543,-96.60022,-60.116917,21.545736,0.020413326
3.4848485,0.04040404,0.00044893846,0.00038393214,0.51648146,-9.64811,5.5511174,0.0005907196
3.4848485,0.08080808,0.00047131628,0.0003571473,0.19157861,-11.932785,6.098656,0.0005913487
3.4848485,0.121212125,0.00049688295,0.0003249999,-0.058776584,-14.177096,6.618056,0.00059373194
3.4848485,0.16161616,0.0005254857,0.00028777122,-0.23837464,-16.383423,7.11019,0.0005991223
3.4848485,0.2020202,0.0005566776,0.00024526007,-0.35059512,-18.553873,7.575203,0.00060831115
3.4848485,0.24242425,0.0005903132,0.00019754842,-0.39916462,-20.691105,8.014045,0.000622491
3.4848485,0.28282827,0.0006261058,0.00014465302,-0.38767225,-22.79771,8.428242,0.0006425986
3.4848485,0.32323232,0.00066369027,8.6568296e-05,-0.32118538,-24.877205,8.81874,0.0006693122
3.4848485,0.36363637,0.00070277974,2.3337081e-05,-0.20421319,-26.932388,9.187981,0.0007031671
3.4848485,0.4040404,0.00074314326,-4.5040622e-05,-0.04197332,-28.966946,9.537695,0.00074450695
3.4848485,0.44444445,0.00078451633,-0.00011854246,0.16040128,-30.98441,9.870412,0.0007934218
3.4848485,0.4848485,0.0008266568,-0.00019728765,0.39715478,-32.988785,10.188318,0.0008498729
3.4848485,0.5252525,0.0008693747,-0.00028111972,0.6618933,-34.98424,10.494503,0.00091369613
3.4848485,0.56565654,0.0009124018,-0.00037015043,0.94923204,-36.97408,10.791682,0.000984626
3.4848485,0.6060606,0.00095559657,-0.00046437234,1.2524347,-38.96322,11.082941,0.001062453
3.4848485,0.64646465,0.0009987243,-0.0005638264,1.5651056,-40.95512,11.371163,0.0011468872
3.4848485,0.68686867,0.0010417327,-0.0006684363,1.8812553,-42.95389,11.659661,0.0012377455
3.4848485,0.72727275,0.0010843389,-0.00077835284,2.193315,-44.96373,11.951507,0.0013347749
3.4848485,0.7676768,0.0011265352,-0.00089349225,2.4954095,-46.987934,12.249876,0.0014378491
3.4848485,0.8080808,0.0011682846,-0.0010139272,2.7810776,-49.029984,12.557805,0.001546912
3.4848485,0.8484849,0.0012092888,-0.0011397209,3.043514,-51.09318,12.878471,0.001661729
3.4848485,0.8888889,0.00124963,-0.0012708046,3.276995,-53.17961,13.214538,0.0017822792
3.4848485,0.9292929,0.0012893006,-0.0014072992,3.475041,-55.292713,13.568907,0.0019086087
3.4848485,0.969697,0.0013281442,-0.0015491731,3.6320002,-57.433388,13.944306,0.0020405645
3.4848485,1.010101,0.001366213,-0.0016964655,3.7425063,-59.603146,14.342757,0.002178195
3.4848485,1.050505,0.0014035664,-0.0018493067,3.8009276,-61.803555,14.766686,0.002321623
3.4848485,1.0909091,0.0014401264,-0.0020075217,3.8031003,-64.03351,15.217827,0.002470649
3.4848485,1.1313131,0.0014758967,-0.0021712035,3.7443063,-66.29325,15.69793,0.002625337
3.4848485,1.1717172,0.001511015,-0.0023403447,3.6209822,-68.581345,16.208473,0.0027857458
3.4848485,1.2121212,0.0015454479,-0.0025150608,3.4291756,-70.896545,16.750427,0.0029519382
3.4848485,1.2525252,0.0015791692,-0.0026950762,3.1668649,-73.23414,17.32456,0.0031236536
3.4848485,1.2929293,0.0016123913,-0.0028806794,2.8307626,-75.5934,17.931288,0.00330123
3.4848485,1.3333334,0.0016449802,-0.0030715875,2.4200764,-77.968475,18.570894,0.0034843376
3.4848485,1.3737373,0.0016771853,-0.0032679532,1.9325761,-80.35596,19.242859,0.0036732096
3.4848485,1.4141414,0.0017087981,-0.0034695081,1.3686278,-82.74892,19.947565,0.00386749
3.4848485,1.4545455,0.0017400496,-0.003676448,0.7278286,-85.14275,20.68325,0.004067437
3.4848485,1.4949495,0.001770921,-0.003888458,0.010544541,-87.53001,21.449408,0.004272735
3.4848485,1.5353535,0.0018014312,-0.0041055605,-0.7819281,-89.903946,22.244753,0.0044833897
3.4848485,1.5757576,0.0018314049,-0.0043275654,-1.6488943,-92.25796,23.067354,0.0046991347
3.4848485,1.6161616,0.0018610582,-0.0045543537,-2.5876608,-94.583305,23.91579,0.004919926
3.4848485,1.6565657,0.0018902533,-0.0047857948,-3.5960848,-96.8726,24.787764,0.00514557
3.4848485,1.6969697,0.0019189604,-0.0050216094,-4.6712384,-99.11668,25.681335,0.0053757764
3.4848485,1.7373737,0.001947064,-0.0052617714,-5.8104825,-101.30927,26.593971,0.005610463
3.4848485,1.7777778,0.0019745491,-0.005506022,-7.0100546,-103.441154,27.523241,0.0058493693
3.4848485,1.8181819,0.0020011328,-0.005754091,-8.267485,-105.50521,28.46665,0.0060921335
3.4848485,1.8585858,0.0020268895,-0.0060058106,-9.578789,-107.494736,29.421654,0.006338615
3.4848485,1.8989899,0.0020514391,-0.0062608365,-10.940176,-109.4016,30.385736,0.006588359
3.4848485,1.939394,0.002074767,-0.0065190215,-12.348424,-111.22007,31.356174,0.0068412204
3.4848485,1.979798,0.002096463,-0.006779976,-13.800779,-112.94484,32.33053,0.007096706
3.4848485,2.020202,0.002116464,-0.0070436187,-15.293857,-114.57132,33.30668,0.0073547256
3.4848485,2.060606,0.0021343194,-0.0073094424,-16.82484,-116.0949,34.28216,0.0076146745
3.4848485,2.10101,0.0021497458,-0.007577339,-18.392197,-117.513336,35.254765,0.007876388
3.4848485,2.1414142,0.002162423,-0.007846793,-19.9935,-118.8235,36.222744,0.008139302
3.4848485,2.1818182,0.0021721013,-0.008117735,-21.626728,-120.02506,37.18441,0.0084033115
3.4848485,2.2222223,0.002178263,-0.008389726,-23.292545,-121.11777,38.13824,0.008667891
3.4848485,2.2626262,0.0021804906,-0.008662406,-24.989319,-122.10109,39.083202,0.008932627
3.4848485,2.3030303,0.0021784492,-0.008935668,-26.718187,-122.97832,40.018063,0.009197379
3.4848485,2.3434343,0.002171602,-0.0092091,-28.480448,-123.75126,40.94224,0.0094616795
3.4848485,2.3838384,0.0021595918,-0.009482434,-30.276133,-124.422066,41.855408,0.009725245
3.4848485,2.4242425,0.002141811,-0.009755349,-32.108074,-124.99509,42.75703,0.009987702
3.4848485,2.4646466,0.0021178462,-0.010027617,-33.979443,-125.47427,43.647263,0.010248823
3.4848485,2.5050504,0.0020872764,-0.010298999,-35.892338,-125.86397,44.526176,0.010508383
3.4848485,2.5454545,0.002049502,-0.01056917,-37.85192,-126.1693,45.393993,0.010766049
3.4848485,2.5858586,0.0020040907,-0.010837883,-39.86001,-126.39324,46.251186,0.011021619
3.4848485,2.6262627,0.0019504763,-0.011104928,-41.921135,-126.540665,47.098164,0.011274918
3.4848485,2.6666667,0.0018883646,-0.011370093,-44.039867,-126.614975,47.935577,0.011525838
3.4848485,2.7070708,0.00181707,-0.011633141,-46.219955,-126.61892,48.76365,0.011774197
3.4848485,2.7474747,0.00173622,-0.01189366,-48.46525,-126.55438,49.582687,0.012019717
3.4848485,2.7878788,0.0016453303,-0.01215156,-50.779537,-126.422585,50.392754,0.012262443
3.4848485,2.8282828,0.0015440322,-0.012406621,-53.165928,-126.2241,51.193905,0.012502331
3.4848485,2.868687,0.0014318638,-0.012658542,-55.626694,-125.95674,51.985374,0.012739267
3.4848485,2.909091,0.0013083704,-0.012907203,-58.16363,-125.61807,52.766273,0.012973347
3.4848485,2.9494948,0.0011732206,-0.013152124,-60.777534,-125.20367,53.535534,0.013204348
3.4848485,2.989899,0.0010260306,-0.013393182,-63.468487,-124.70903,54.29083,0.013432426
3.4848485,3.030303,0.0008662939,-0.013630044,-66.23476,-124.12693,55.02949,0.013657546
3.4848485,3.070707,0.00069397315,-0.013862461,-69.07331,-123.44989,55.74759,0.013879821
3.4848485,3.1111112,0.00050835684,-0.014090002,-71.97862,-122.666626,56.440308,0.0140991695
3.4848485,3.1515152,0.00030918792,-0.014312476,-74.94522,-121.76896,57.101906,0.014315815
3.4848485,3.191919,9.5989555e-05,-0.01452937,-77.9631,-120.74418,57.724148,0.014529686
3.4848485,3.2323232,-0.00013152882,-0.0147404745,-81.020836,-119.579544,58.29895,0.014741061
3.4848485,3.2727273,-0.00037408248,-0.014945246,-84.10229,-118.26121,58.81369,0.014949927
3.4848485,3.3131313,-0.0006322488,-0.015143409,-87.19099,-116.77618,59.255478,0.0151566025
3.4848485,3.3535354,-0.00090651587,-0.015334368,-90.26303,-115.10839,59.607555,0.01536114
3.4848485,3.3939395,-0.0011978857,-0.015517838,-93.28968,-113.24057,59.8504,0.015564005
3.4848485,3.4343433,-0.001507178,-0.01569336,-96.23832,-111.15532,59.959404,0.015765568
3.4848485,3.4747474,-0.0018357374,-0.015860464,-99.06898,-108.833595,59.906628,0.015966348
3.4848485,3.5151515,-0.0021847412,-0.016018674,-101.73298,-106.2554,59.658924,0.016166972
3.4848485,3.5555556,-0.0025560148,-0.0161675,-104.17058,-103.39409,59.176395,0.0163683
3.4848485,3.5959597,-0.0029515289,-0.016306475,-106.31521,-100.22466,58.41182,0.016571442
3.4848485,3.6363637,-0.0033737011,-0.016435292,-108.08397,-96.71408,57.3115,0.016777983
3.4848485,3.6767676,-0.003825467,-0.01655338,-109.38072,-92.82419,55.81,0.01698966
3.4848485,3.7171717,-0.004310224,-0.016660381,-110.09495,-88.51269,53.83532,0.017208902
3.4848485,3.7575758,-0.00483194,-0.016755886,-110.09633,-83.72906,51.302284,0.017438674
3.4848485,3.7979798,-0.005395394,-0.016839411,-109.234406,-78.41121,48.11394,0.017682647
3.4848485,3.838384,-0.0060062073,-0.016910609,-107.33775,-72.487976,44.159573,0.017945562
3.4848485,3.878788,-0.0066706054,-0.016969156,-104.21561,-65.878456,39.316383,0.01823319
3.4848485,3.9191918,-0.007396098,-0.017014463,-99.64741,-58.4852,33.445976,0.018552471
3.4848485,3.959596,-0.008191187,-0.017046358,-93.395,-50.20227,26.396332,0.018912269
3.4848485,4.0,-0.009065423,-0.01706424,-85.195496,-40.907608,18.000814,0.01932279
3.5353537,0.04040404,0.00046330318,0.00040567666,0.6706836,-9.396593,5.558613,0.00061581115
3.5353537,0.08080808,0.00048756972,0.00037931278,0.34467846,-11.6296215,6.132261,0.0006177398
3.5353537,0.121212125,0.00051530823,0.00034796074,0.09006012,-13.8218,6.678217,0.00062178716
3.5353537,0.16161616,0.0005462505,0.00031141192,-0.09574965,-15.975293,7.1962175,0.00062878215
3.5353537,0.2020202,0.0005799271,0.00026983023,-0.21615554,-18.091867,7.6870975,0.00063962786
3.5353537,0.24242425,0.000616204,0.00022320077,-0.27443343,-20.174126,8.151778,0.0006553823
3.5353537,0.28282827,0.0006546937,0.00017150678,-0.27473903,-22.225092,8.5912075,0.0006767853
3.5353537,0.32323232,0.0006951429,0.00011477992,-0.22094844,-24.247284,9.006822,0.00070455525
3.5353537,0.36363637,0.00073717535,5.3096563e-05,-0.11864624,-26.244385,9.400601,0.0007390851
3.5353537,0.4040404,0.00078063086,-1.3606623e-05,0.028372876,-28.219053,9.774383,0.0007807494
3.5353537,0.44444445,0.00082521513,-8.530542e-05,0.21435978,-30.175488,10.130402,0.0008296126
3.5353537,0.4848485,0.0008706711,-0.00016199425,0.43371814,-32.117252,10.471369,0.000885613
3.5353537,0.5252525,0.0009167753,-0.00024366565,0.68102795,-34.048203,10.799817,0.0009486042
3.5353537,0.56565654,0.0009632036,-0.0003303513,0.9500246,-35.972347,11.118495,0.0010182796
3.5353537,0.6060606,0.0010098852,-0.00042198598,1.2346617,-37.89387,11.430581,0.0010945046
3.5353537,0.64646465,0.0010564663,-0.0005187169,1.5284564,-39.816612,11.738968,0.0011769402
3.5353537,0.68686867,0.0011030063,-0.0006204136,1.8254583,-41.744457,12.046887,0.001265518
3.5353537,0.72727275,0.0011491366,-0.0007272195,2.1184,-43.68193,12.357564,0.0013599129
3.5353537,0.7676768,0.0011948869,-0.00083903596,2.401526,-45.63194,12.673873,0.0014600466
3.5353537,0.8080808,0.0012400113,-0.00095589086,2.6683147,-47.59797,12.999177,0.0015656805
3.5353537,0.8484849,0.0012844987,-0.0010779332,2.9117222,-49.58383,13.336369,0.0016768653
3.5353537,0.8888889,0.0013282858,-0.0012051445,3.1263056,-51.591972,13.6884165,0.0017935206
3.5353537,0.9292929,0.0013711713,-0.0013374574,3.3058918,-53.624702,14.058159,0.0019154382
3.5353537,0.969697,0.0014132522,-0.001474984,3.4438708,-55.684376,14.44816,0.0020427578
3.5353537,1.010101,0.0014544874,-0.0016177576,3.5361657,-57.771767,14.860899,0.0021754708
3.5353537,1.050505,0.0014947914,-0.0017656572,3.5764196,-59.888233,15.298524,0.0023134274
3.5353537,1.0909091,0.0015341751,-0.0019188467,3.560126,-62.033787,15.763001,0.0024567593
3.5353537,1.1313131,0.0015726686,-0.0020772144,3.4834797,-64.20763,16.256165,0.0026053996
3.5353537,1.1717172,0.0016103089,-0.0022409372,3.3415182,-66.409775,16.779203,0.0027595097
3.5353537,1.2121212,0.001647111,-0.0024098326,3.1316013,-68.63719,17.333504,0.0029189496
3.5353537,1.2525252,0.0016830899,-0.0025839284,2.8506596,-70.88714,17.919949,0.003083744
3.5353537,1.2929293,0.0017182715,-0.002763331,2.4957485,-73.157684,18.538797,0.0032539906
3.5353537,1.3333334,0.001752615,-0.002947852,2.065847,-75.44369,19.190252,0.003429503
3.5353537,1.3737373,0.001786381,-0.00313746,1.5588727,-77.740944,19.874432,0.0036103756
3.5353537,1.4141414,0.0018193647,-0.0033322275,0.9746951,-80.0435,20.590826,0.0037965546
3.5353537,1.4545455,0.0018516704,-0.0035319254,0.31344154,-82.34559,21.338787,0.003987879
3.5353537,1.4949495,0.0018833615,-0.0037365146,-0.42543867,-84.64099,22.116856,0.004184327
3.5353537,1.5353535,0.0019144043,-0.003945954,-1.2400012,-86.92164,22.924314,0.0043858294
3.5353537,1.5757576,0.001944799,-0.004159987,-2.1294265,-89.180214,23.759026,0.0045921383
3.5353537,1.6161616,0.001974482,-0.004378598,-3.091297,-91.40952,24.619358,0.004803197
3.5353537,1.6565657,0.0020035394,-0.004601551,-4.1229625,-93.60005,25.503742,0.005018809
3.5353537,1.6969697,0.002031736,-0.004828712,-5.222093,-95.74421,26.409016,0.005238741
3.5353537,1.7373737,0.0020591803,-0.0050598495,-6.3857713,-97.83368,27.33333,0.005462811
3.5353537,1.7777778,0.0020855777,-0.005294796,-7.61011,-99.859695,28.273863,0.005690738
3.5353537,1.8181819,0.0021109805,-0.005533442,-8.89194,-101.81523,29.228207,0.0059224335
3.5353537,1.8585858,0.0021352097,-0.0057751853,-10.227107,-103.69067,30.193453,0.0061572627
3.5353537,1.8989899,0.0021580383,-0.006020112,-11.61192,-105.479774,31.166834,0.006395223
3.5353537,1.939394,0.0021792315,-0.006267853,-13.043215,-107.176155,32.14556,0.00663589
3.5353537,1.979798,0.0021986626,-0.0065180305,-14.51662,-108.77272,33.126923,0.0068788687
3.5353537,2.020202,0.0022160597,-0.006770516,-16.029001,-110.26472,34.108543,0.0071239597
3.5353537,2.060606,0.0022311397,-0.007024804,-17.57753,-111.64798,35.08744,0.0073706075
3.5353537,2.10101,0.002243504,-0.0072808526,-19.159002,-112.91854,36.061554,0.0076186694
3.5353537,2.1414142,0.0022529848,-0.007538054,-20.771175,-114.073875,37.028584,0.007867541
3.5353537,2.1818182,0.0022590011,-0.007796256,-22.411766,-115.11213,37.98652,0.008116938
3.5353537,2.2222223,0.0022613555,-0.008055158,-24.079905,-116.033745,38.9339,0.008366559
3.5353537,2.2626262,0.0022595748,-0.008314392,-25.774195,-116.83855,39.8685,0.008615961
3.5353537,2.3030303,0.0022532605,-0.008573711,-27.494953,-117.52889,40.789738,0.008864858
3.5353537,2.3434343,0.0022419356,-0.008832738,-29.242327,-118.107025,41.696064,0.009112822
3.5353537,2.3838384,0.0022251569,-0.009091146,-31.01725,-118.57599,42.58675,0.009359501
3.5353537,2.4242425,0.0022025108,-0.0093487315,-32.82039,-118.939255,43.461796,0.009604678
3.5353537,2.4646466,0.0021733455,-0.009605184,-34.655075,-119.2028,44.320206,0.009847994
3.5353537,2.5050504,0.0021372847,-0.009860173,-36.523376,-119.37072,45.161983,0.0100891525
3.5353537,2.5454545,0.0020938478,-0.01011356,-38.428032,-119.44866,45.987125,0.010328034
3.5353537,2.5858586,0.0020425096,-0.010364903,-40.373375,-119.442444,46.7961,0.010564235
3.5353537,2.6262627,0.001982849,-0.010614222,-42.36187,-119.357285,47.58914,0.010797842
3.5353537,2.6666667,0.0019141957,-0.010861002,-44.397247,-119.19677,48.36561,0.011028395
3.5353537,2.7070708,0.0018362701,-0.01110521,-46.48421,-118.96616,49.126915,0.011256001
3.5353537,2.7474747,0.001748424,-0.01134651,-48.625614,-118.66888,49.872627,0.01148043
3.5353537,2.7878788,0.0016503297,-0.011584749,-50.82566,-118.30802,50.602882,0.01170171
3.5353537,2.8282828,0.0015414692,-0.011819635,-53.086357,-117.88341,51.316914,0.011919727
3.5353537,2.868687,0.001421459,-0.012050973,-55.410416,-117.39578,52.014565,0.012134518
3.5353537,2.909091,0.0012898222,-0.012278682,-57.79926,-116.84392,52.69476,0.012346241
3.5353537,2.9494948,0.0011462383,-0.012502331,-60.25328,-116.22369,53.35628,0.012554767
3.5353537,2.989899,0.0009903312,-0.012721749,-62.771873,-115.53133,53.995804,0.012760237
3.5353537,3.030303,0.00082157925,-0.012936778,-65.35378,-114.76069,54.61126,0.0129628405
3.5353537,3.070707,0.0006396845,-0.013146913,-67.99463,-113.90242,55.19859,0.013162467
3.5353537,3.1111112,0.0004444234,-0.013352146,-70.68866,-112.94632,55.752678,0.01335954
3.5353537,3.1515152,0.00023521483,-0.013552036,-73.42959,-111.88292,56.26816,0.013554078
3.5353537,3.191919,1.1727214e-05,-0.013746241,-76.2061,-110.697296,56.735912,0.013746246
3.5353537,3.2323232,-0.0002265051,-0.013934486,-79.00681,-109.37619,57.148064,0.013936327
3.5353537,3.2727273,-0.00047994033,-0.014116341,-81.81436,-107.90283,57.492977,0.014124498
3.5353537,3.3131313,-0.0007491037,-0.014291404,-84.60996,-106.25985,57.75701,0.014311023
3.5353537,3.3535354,-0.0010346398,-0.014459388,-87.3694,-104.42864,57.924328,0.014496358
3.5353537,3.3939395,-0.001337219,-0.014619706,-90.06474,-102.38924,57.976143,0.014680735
3.5353537,3.4343433,-0.001658015,-0.014771938,-92.660675,-100.12025,57.88839,0.014864695
3.5353537,3.4747474,-0.001997795,-0.014915641,-95.1164,-97.5971,57.63491,0.015048838
3.5353537,3.5151515,-0.0023578182,-0.015050396,-97.38353,-94.796036,57.184643,0.0152339665
3.5353537,3.5555556,-0.0027398951,-0.015175596,-99.40414,-91.688965,56.499187,0.015420951
3.5353537,3.5959597,-0.0031455979,-0.01529086,-101.108475,-88.242256,55.53541,0.015611059
3.5353537,3.6363637,-0.0035773218,-0.015395634,-102.418106,-84.42326,54.24195,0.015805783
3.5353537,3.6767676,-0.004037656,-0.015489411,-103.23793,-80.19186,52.559715,0.016007014
3.5353537,3.7171717,-0.004529804,-0.015571643,-103.45935,-75.501144,50.419834,0.016217127
3.5353537,3.7575758,-0.0050572753,-0.015641943,-102.95322,-70.298355,47.744408,0.016439173
3.5353537,3.7979798,-0.005624544,-0.015699849,-101.57574,-64.52376,44.443172,0.016676951
3.5353537,3.838384,-0.0062368326,-0.015744742,-99.15864,-58.106335,40.4127,0.016935023
3.5353537,3.878788,-0.006899994,-0.015776154,-95.510765,-50.96433,35.538754,0.017219087
3.5353537,3.9191918,-0.007620629,-0.015793778,-90.4194,-43.005775,29.69241,0.017536175
3.5353537,3.959596,-0.008407071,-0.015796922,-83.64531,-34.12301,22.729637,0.017894737
3.5353537,4.0,-0.009267934,-0.015785135,-74.92497,-24.198925,14.492784,0.018304784
3.5858586,0.04040404,0.00047774985,0.000425091,0.82619,-9.139943,5.5498815,0.00063948985
3.5858586,0.08080808,0.00050392374,0.00039934367,0.49681246,-11.319136,6.1488333,0.0006429732
3.5858586,0.121212125,0.0005337596,0.00036857463,0.23646723,-13.457214,6.7197638,0.0006486498
3.5858586,0.16161616,0.00056679174,0.00033293478,0.042832162,-15.5552025,7.263007,0.00065734197
3.5858586,0.2020202,0.0006029345,0.0002921857,-0.087032765,-17.615732,7.7787476,0.0006700019
3.5858586,0.24242425,0.0006416589,0.00024668314,-0.15711619,-19.640905,8.26799,0.0006874436
3.5858586,0.28282827,0.0006828122,0.00019627623,-0.17024146,-21.63295,8.731734,0.0007104624
3.5858586,0.32323232,0.0007260181,0.00014095195,-0.13121153,-23.595257,9.171374,0.000739574
3.5858586,0.36363637,0.0007709898,8.083135e-05,-0.04427868,-25.530771,9.58858,0.00077521545
3.5858586,0.4040404,0.000817433,1.5931204e-05,0.08580705,-27.442417,9.98527,0.00081758824
3.5858586,0.44444445,0.0008650385,-5.3850934e-05,0.25392026,-29.334347,10.363729,0.00086671306
3.5858586,0.4848485,0.0009136237,-0.00012844987,0.4549231,-31.20995,10.726481,0.0009226092
3.5858586,0.5252525,0.0009629056,-0.00020777807,0.68272716,-33.07301,11.0759535,0.0009850679
3.5858586,0.56565654,0.0010126717,-0.00029202178,0.9322785,-34.92733,11.415153,0.0010539358
3.5858586,0.6060606,0.0010626353,-0.00038100034,1.1968994,-36.77724,11.746952,0.0011288733
3.5858586,0.64646465,0.0011126623,-0.00047482178,1.4705068,-38.62673,12.074277,0.0012097409
3.5858586,0.68686867,0.0011625029,-0.0005734451,1.7470644,-40.479397,12.400507,0.0012962455
3.5858586,0.72727275,0.0012120157,-0.000676943,2.0199263,-42.33963,12.728512,0.0013882485
3.5858586,0.7676768,0.0012610406,-0.00078522786,2.282705,-44.210808,13.061306,0.0014855323
3.5858586,0.8080808,0.0013095327,-0.0008984655,2.5297277,-46.096443,13.40266,0.0015881172
3.5858586,0.8484849,0.001357276,-0.00101652,2.7532535,-48.000183,13.754845,0.0016957332
3.5858586,0.8888889,0.0014042221,-0.0011395551,2.9482942,-49.924603,14.121408,0.0018084318
3.5858586,0.9292929,0.0014502965,-0.0012674686,3.1087408,-51.87204,14.50468,0.0019260936
3.5858586,0.969697,0.0014953502,-0.0014003757,3.2280133,-53.84465,14.907702,0.0020486885
3.5858586,1.010101,0.0015395619,-0.0015382934,3.3014457,-55.844376,15.332842,0.0021763726
3.5858586,1.050505,0.0015826859,-0.0016811229,3.3236663,-57.87139,15.782177,0.0023089107
3.5858586,1.0909091,0.0016248263,-0.0018289555,3.2895007,-59.92663,16.258165,0.0024464543
3.5858586,1.1313131,0.0016658269,-0.0019818563,3.1945024,-62.009842,16.762075,0.0025889638
3.5858586,1.1717172,0.0017058142,-0.0021396521,3.0352697,-64.118935,17.295681,0.0027364052
3.5858586,1.2121212,0.0017447732,-0.00230252,2.807615,-66.25379,17.85992,0.0028889154
3.5858586,1.2525252,0.0017827265,-0.0024703983,2.5087075,-68.41087,18.455885,0.0030464702
3.5858586,1.2929293,0.0018197186,-0.0026431773,2.1366599,-70.58702,19.084251,0.0032090126
3.5858586,1.3333334,0.0018557347,-0.00282084,1.6890879,-72.778206,19.745089,0.0033765205
3.5858586,1.3737373,0.0018907599,-0.0030034017,1.1645035,-74.97991,20.438406,0.0035489993
3.5858586,1.4141414,0.0019249506,-0.0031908825,0.5623834,-77.187126,21.163677,0.003726549
3.5858586,1.4545455,0.0019581653,-0.003383046,-0.11702426,-79.39294,21.920454,0.003908889
3.5858586,1.4949495,0.0019905046,-0.0035798345,-0.87430704,-81.591515,22.70743,0.004096013
3.5858586,1.5353535,0.0020220056,-0.0037811324,-1.7074568,-83.7745,23.523306,0.0042878278
3.5858586,1.5757576,0.0020524934,-0.003986843,-2.6160133,-85.93523,24.366684,0.0044841547
3.5858586,1.6161616,0.0020820685,-0.0041968916,-3.5970252,-88.06477,25.235632,0.004684966
3.5858586,1.6565657,0.0021106936,-0.004410984,-4.648682,-90.15508,26.128038,0.00488997
3.5858586,1.6969697,0.0021383315,-0.00462904,-5.76774,-92.19728,27.041588,0.005099066
3.5858586,1.7373737,0.0021647625,-0.004850799,-6.950938,-94.18278,27.973509,0.0053119157
3.5858586,1.7777778,0.0021900572,-0.005076036,-8.19504,-96.10272,28.921432,0.005528335
3.5858586,1.8181819,0.0022139847,-0.005304612,-9.496025,-97.949036,29.88249,0.0057480987
3.5858586,1.8585858,0.002236504,-0.0055362247,-10.84988,-99.71274,30.853804,0.0059709074
3.5858586,1.8989899,0.0022573657,-0.005770566,-12.252952,-101.38677,31.832453,0.0061963806
3.5858586,1.939394,0.0022762232,-0.0060073435,-13.701322,-102.96353,32.814957,0.006424124
3.5858586,1.979798,0.0022931322,-0.0062463824,-15.190106,-104.436424,33.79936,0.0066540022
3.5858586,2.020202,0.0023077913,-0.006487334,-16.716202,-105.800156,34.781918,0.0068855938
3.5858586,2.060606,0.0023197867,-0.0067299176,-18.275652,-107.04856,35.76046,0.0071185115
3.5858586,2.10101,0.0023288503,-0.006973589,-19.865492,-108.178604,36.731995,0.007352175
3.5858586,2.1414142,0.002334822,-0.007218335,-21.482409,-109.18754,37.69384,0.007586551
3.5858586,2.1818182,0.002337113,-0.007463705,-23.124128,-110.07275,38.64424,0.00782106
3.5858586,2.2222223,0.0023354478,-0.0077093,-24.789656,-110.83491,39.580708,0.008055286
3.5858586,2.2626262,0.0023294576,-0.007954871,-26.475563,-111.47264,40.501324,0.008288929
3.5858586,2.3030303,0.0023186952,-0.00820001,-28.182602,-111.98851,41.404728,0.008521533
3.5858586,2.3434343,0.002302695,-0.00844452,-29.909742,-112.38496,42.289486,0.008752846
3.5858586,2.3838384,0.0022809803,-0.008688051,-31.657364,-112.66536,43.154293,0.008982489
3.5858586,2.4242425,0.0022531264,-0.008930273,-33.426888,-112.83425,43.998615,0.009210123
3.5858586,2.4646466,0.0022186376,-0.0091708265,-35.219574,-112.89631,44.821587,0.009435381
3.5858586,2.5050504,0.0021770783,-0.009409599,-37.037506,-112.85852,45.623035,0.009658169
3.5858586,2.5454545,0.0021277964,-0.009646222,-38.883526,-112.72601,46.402386,0.009878113
3.5858586,2.5858586,0.0020704977,-0.009880483,-40.76018,-112.50585,47.15989,0.010095093
3.5858586,2.6262627,0.0020045824,-0.010112012,-42.670574,-112.20284,47.89554,0.010308789
3.5858586,2.6666667,0.0019294657,-0.010340791,-44.618958,-111.82583,48.609295,0.010519259
3.5858586,2.7070708,0.0018448047,-0.010566419,-46.607887,-111.37826,49.301247,0.0107262535
3.5858586,2.7474747,0.0017500408,-0.010788836,-48.64207,-110.86606,49.971596,0.01092985
3.5858586,2.7878788,0.0016447417,-0.011007687,-50.723236,-110.292816,50.61959,0.011129886
3.5858586,2.8282828,0.001528509,-0.011222897,-52.855095,-109.66152,51.245712,0.011326507
3.5858586,2.868687,0.0014008582,-0.011434194,-55.03923,-108.97321,51.849136,0.011519686
3.5858586,2.909091,0.0012612753,-0.011641443,-57.277905,-108.22853,52.427795,0.011709569
3.5858586,2.9494948,0.0011095107,-0.011844397,-59.57101,-107.425186,52.981377,0.01189625
3.5858586,2.989899,0.00094504654,-0.012042826,-61.916954,-106.55857,53.50651,0.01207985
3.5858586,3.030303,0.0007675402,-0.01223655,-64.31553,-105.62492,54.00088,0.012260599
3.5858586,3.070707,0.000576701,-0.012425415,-66.76114,-104.61382,54.460457,0.012438791
3.5858586,3.1111112,0.00037213042,-0.012609042,-69.2486,-103.517624,54.880592,0.012614532
3.5858586,3.1515152,0.0001532659,-0.012787301,-71.76996,-102.32391,55.254612,0.012788219
3.5858586,3.191919,-7.997081e-05,-0.012959823,-74.31444,-101.0177,55.574776,0.01296007
3.5858586,3.2323232,-0.0003281273,-0.013126271,-76.86912,-99.58397,55.833214,0.013130371
3.5858586,3.2727273,-0.00059180334,-0.013286373,-79.41738,-98.0047,56.01757,0.013299546
3.5858586,3.3131313,-0.0008713566,-0.01343976,-81.93954,-96.260994,56.115395,0.013467977
3.5858586,3.3535354,-0.0011673346,-0.013586018,-84.409195,-94.32922,56.1109,0.013636076
3.5858586,3.3939395,-0.0014805458,-0.013724713,-86.79873,-92.18713,55.98557,0.013804338
3.5858586,3.4343433,-0.0018117614,-0.013855446,-89.07268,-89.81068,55.71723,0.013973398
3.5858586,3.4747474,-0.0021619461,-0.013977654,-91.18858,-87.169266,55.28022,0.014143862
3.5858586,3.5151515,-0.0025321804,-0.014091063,-93.09948,-84.23726,54.645546,0.014316773
3.5858586,3.5555556,-0.002923999,-0.014194913,-94.74688,-80.98078,53.7768,0.014492941
3.5858586,3.5959597,-0.0033391006,-0.014288796,-96.063515,-77.36483,52.63297,0.014673762
3.5858586,3.6363637,-0.0037793107,-0.014372138,-96.96848,-73.34852,51.166862,0.014860738
3.5858586,3.6767676,-0.004247207,-0.014444446,-97.37391,-68.89327,49.32291,0.015055923
3.5858586,3.7171717,-0.00474561,-0.014505124,-97.16976,-63.94674,47.03757,0.0152616985
3.5858586,3.7575758,-0.0052779466,-0.014553612,-96.23413,-58.457386,44.23729,0.015481096
3.5858586,3.7979798,-0.005848199,-0.01458928,-94.42414,-52.360706,40.838806,0.015717776
3.5858586,3.838384,-0.00646095,-0.014611708,-91.57751,-45.587875,36.747574,0.015976416
3.5858586,3.878788,-0.007121943,-0.014620183,-87.50649,-38.05559,31.854391,0.01626259
3.5858586,3.9191918,-0.00783718,-0.014614189,-82.00737,-29.67681,26.041306,0.016583001
3.5858586,3.959596,-0.00861413,-0.014593171,-74.84174,-20.345407,19.172218,0.01694591
3.5858586,4.0,-0.009461049,-0.014556559,-65.751274,-9.945318,11.100315,0.017361015
3.6363637,0.04040404,0.00049239397,0.00044209696,0.97984225,-8.879174,5.5251584,0.0006617413
3.6363637,0.08080808,0.00052034855,0.00041689724,0.6452848,-11.002973,6.148192,0.00066675775
3.6363637,0.121212125,0.000552129,0.00038684346,0.37818763,-13.084272,6.7431903,0.0006741619
3.6363637,0.16161616,0.00058735535,0.00035192445,0.17569171,-15.124793,7.3103065,0.0006847168
3.6363637,0.2020202,0.000625629,0.00031233393,0.03450651,-17.126587,7.849971,0.0006992597
3.6363637,0.24242425,0.0006667711,0.00026790798,-0.048240434,-19.09182,8.362636,0.00071858085
3.6363637,0.28282827,0.0007104203,0.00021882355,-0.075860254,-21.022654,8.849512,0.00074335776
3.6363637,0.32323232,0.00075625256,0.00016505271,-0.052776437,-22.922344,9.311972,0.0007740545
3.6363637,0.36363637,0.0008039735,0.000106573105,0.017038334,-24.793442,9.751484,0.00081100635
3.6363637,0.4040404,0.0008532144,4.3492764e-05,0.1288407,-26.639345,10.170005,0.0008543222
3.6363637,0.44444445,0.0009038672,-2.4242327e-05,0.27811226,-28.463327,10.569753,0.0009041922
3.6363637,0.4848485,0.00095543265,-9.662472e-05,0.4594834,-30.269194,10.953083,0.00096030615
3.6363637,0.5252525,0.0010077506,-0.00017362274,0.6674225,-32.060585,11.322549,0.0010225978
3.6363637,0.56565654,0.0010606088,-0.0002552364,0.8958478,-33.84168,11.6807375,0.001090888
3.6363637,0.6060606,0.0011137463,-0.00034139305,1.1395156,-35.6161,12.030979,0.0011648949
3.6363637,0.64646465,0.001166936,-0.0004321467,1.3923025,-37.388084,12.37591,0.0012443835
3.6363637,0.68686867,0.0012199506,-0.0005276203,1.6477307,-39.161522,12.718779,0.0013291587
3.6363637,0.72727275,0.0012726597,-0.000627663,1.8994582,-40.94053,13.062747,0.001419022
3.6363637,0.7676768,0.0013249181,-0.00073228776,2.1413598,-42.72851,13.410975,0.0015138207
3.6363637,0.8080808,0.0013765506,-0.00084165856,2.3676038,-44.529198,13.766403,0.0016134685
3.6363637,0.8484849,0.0014274456,-0.00095560774,2.5716157,-46.345695,14.132211,0.0017177855
3.6363637,0.8888889,0.0014773719,-0.001074221,2.7467875,-48.181393,14.511391,0.0018266303
3.6363637,0.9292929,0.0015263967,-0.0011975896,2.8874397,-50.038605,14.906485,0.0019401308
3.6363637,0.969697,0.0015743822,-0.0013256483,2.9880962,-51.919598,15.320701,0.00205816
3.6363637,1.010101,0.001621291,-0.0014584102,3.0430977,-53.825813,15.756285,0.0021807211
3.6363637,1.050505,0.0016670786,-0.0015958976,3.047077,-55.758404,16.2155,0.0023078215
3.6363637,1.0909091,0.001711633,-0.001738146,2.9953249,-57.718094,16.70022,0.0024394342
3.6363637,1.1313131,0.0017550178,-0.0018851291,2.8832002,-59.704247,17.212759,0.0025756164
3.6363637,1.1717172,0.0017972998,-0.0020368956,2.7073512,-61.716362,17.754263,0.002716474
3.6363637,1.2121212,0.0018382296,-0.0021934211,2.463131,-63.752754,18.326107,0.0028618497
3.6363637,1.2525252,0.0018780604,-0.0023546424,2.1487024,-65.81048,18.929256,0.0030118849
3.6363637,1.2929293,0.0019166581,-0.0025205668,1.7607403,-67.88725,19.564243,0.003166518
3.6363637,1.3333334,0.0019540153,-0.0026910827,1.2973346,-69.978676,20.231274,0.003325673
3.6363637,1.3737373,0.0019903146,-0.0028662644,0.7574204,-72.08044,20.93072,0.0034895306
3.6363637,1.4141414,0.0020254217,-0.0030460376,0.13989314,-74.18708,21.661741,0.0036579608
3.6363637,1.4545455,0.0020593964,-0.0032302644,-0.5551399,-76.29229,22.424042,0.0038308904
3.6363637,1.4949495,0.0020922162,-0.0034188312,-1.3274,-78.38929,23.216455,0.0040082135
3.6363637,1.5353535,0.0021238662,-0.003611695,-2.1758091,-80.47101,24.03772,0.0041898866
3.6363637,1.5757576,0.0021544062,-0.0038087163,-3.0995042,-82.5301,24.885967,0.004375818
3.6363637,1.6161616,0.0021836795,-0.0040097404,-4.096054,-84.55756,25.759737,0.004565794
3.6363637,1.6565657,0.002211742,-0.0042145997,-5.162802,-86.545074,26.656652,0.0047596907
3.6363637,1.6969697,0.002238486,-0.0044230893,-6.296884,-88.48339,27.574202,0.0049572713
3.6363637,1.7373737,0.002263829,-0.0046350956,-7.495228,-90.36424,28.510166,0.0051583946
3.6363637,1.7777778,0.0022877492,-0.0048502553,-8.753601,-92.177505,29.461393,0.0053627207
3.6363637,1.8181819,0.0023100637,-0.0050685406,-10.069071,-93.91618,30.425123,0.0055701435
3.6363637,1.8585858,0.0023305602,-0.0052894317,-11.43621,-95.5695,31.398539,0.0057801036
3.6363637,1.8989899,0.0023491941,-0.0055129174,-12.851865,-97.13098,32.377987,0.0059925765
3.6363637,1.939394,0.0023656823,-0.0057385024,-14.31037,-98.591576,33.361084,0.006207001
3.6363637,1.979798,0.0023799315,-0.005966047,-15.809307,-99.94569,34.343998,0.006423223
3.6363637,2.020202,0.0023914985,-0.0061951857,-17.342844,-101.18597,35.32382,0.0066407523
3.6363637,2.060606,0.0024002232,-0.006425524,-18.90758,-102.307144,36.297806,0.0068591856
3.6363637,2.10101,0.0024059452,-0.006656904,-20.499949,-103.30543,37.262836,0.007078343
3.6363637,2.1414142,0.0024080984,-0.0068888217,-22.116077,-104.17606,38.215954,0.007297589
3.6363637,2.1818182,0.0024064146,-0.0071210153,-23.753445,-104.918816,39.15455,0.0075166277
3.6363637,2.2222223,0.0024005733,-0.007353142,-25.409433,-105.53148,40.076828,0.007735079
3.6363637,2.2626262,0.00239015,-0.00758484,-27.08188,-106.01434,40.980225,0.0079525225
3.6363637,2.3030303,0.0023747422,-0.007815849,-28.769287,-106.36896,41.862625,0.008168654
3.6363637,2.3434343,0.0023539066,-0.008045809,-30.470959,-106.5977,42.72262,0.008383074
3.6363637,2.3838384,0.0023271628,-0.00827427,-32.186817,-106.70429,43.558483,0.008595303
3.6363637,2.4242425,0.0022940896,-0.008501157,-33.917706,-106.694695,44.369534,0.008805255
3.6363637,2.4646466,0.002254013,-0.008725947,-35.664078,-106.571815,45.15449,0.009012365
3.6363637,2.5050504,0.0022069328,-0.008948607,-37.42705,-106.34469,45.91325,0.0092167305
3.6363637,2.5454545,0.0021518208,-0.009168625,-39.209667,-106.01875,46.64469,0.00941775
3.6363637,2.5858586,0.0020883568,-0.009385822,-41.013935,-105.60106,47.348602,0.009615347
3.6363637,2.6262627,0.002016183,-0.0096000545,-42.843246,-105.100296,48.02532,0.0098094875
3.6363637,2.6666667,0.0019346401,-0.009810982,-44.70012,-104.52285,48.674614,0.00999991
3.6363637,2.7070708,0.0018433481,-0.0100184865,-46.589043,-103.8767,49.296337,0.010186658
3.6363637,2.7474747,0.0017416887,-0.010222293,-48.51155,-103.1669,49.890152,0.010369607
3.6363637,2.7878788,0.0016293228,-0.01042228,-50.472515,-102.40087,50.45624,0.010548868
3.6363637,2.8282828,0.0015058182,-0.010618228,-52.47328,-101.58126,50.993935,0.01072447
3.6363637,2.868687,0.0013705976,-0.010809936,-54.516933,-100.7122,51.502907,0.010896479
3.6363637,2.909091,0.0012233257,-0.010997381,-56.60424,-99.79458,51.98177,0.011065212
3.6363637,2.9494948,0.0010636486,-0.011180218,-58.73592,-98.82838,52.42923,0.011230701
3.6363637,2.989899,0.00089103356,-0.011358339,-60.911404,-97.81071,52.842785,0.011393235
3.6363637,3.030303,0.00070505217,-0.011531686,-63.127407,-96.73665,53.21901,0.0115532195
3.6363637,3.070707,0.0005056299,-0.011699859,-65.38197,-95.60013,53.55554,0.01171078
3.6363637,3.1111112,0.00029223785,-0.011862887,-67.66844,-94.39204,53.846615,0.011866487
3.6363637,3.1515152,6.4413995e-05,-0.012020407,-69.97816,-93.09961,54.08601,0.01202058
3.6363637,3.191919,-0.00017812848,-0.012172187,-72.30041,-91.70783,54.26688,0.01217349
3.6363637,3.2323232,-0.000435777,-0.0123179685,-74.62213,-90.20186,54.37982,0.012325674
3.6363637,3.2727273,-0.0007088743,-0.01245752,-76.92606,-88.56084,54.41472,0.012477673
3.6363637,3.3131313,-0.0009980872,-0.012590431,-79.19258,-86.7647,54.358345,0.01262993
3.6363637,3.3535354,-0.0013038181,-0.012716349,-81.39508,-84.7885,54.195786,0.012783015
3.6363637,3.3939395,-0.001626797,-0.012834912,-83.50548,-82.606476,53.908867,0.012937598
3.6363637,3.4343433,-0.0019676723,-0.012945734,-85.48738,-80.18969,53.477016,0.013094417
3.6363637,3.4747474,-0.002327282,-0.0130482875,-87.30001,-77.50841,52.875305,0.0132542085
3.6363637,3.5151515,-0.0027068816,-0.013142118,-88.89433,-74.52812,52.07527,0.013417991
3.6363637,3.5555556,-0.0031074882,-0.0132266935,-90.21358,-71.21293,51.043697,0.0135868285
3.6363637,3.5959597,-0.0035308562,-0.013301527,-91.19148,-67.525055,49.74177,0.013762179
3.6363637,3.6363637,-0.003978651,-0.0133659765,-91.75024,-63.42039,48.124588,0.013945572
3.6363637,3.6767676,-0.0044532157,-0.013419446,-91.80112,-58.854195,46.140903,0.014139047
3.6363637,3.7171717,-0.0049570315,-0.013461396,-91.23924,-53.77326,43.731277,0.014345081
3.6363637,3.7575758,-0.005493272,-0.013491148,-89.9451,-48.12117,40.82694,0.014566644
3.6363637,3.7979798,-0.0060655214,-0.013508083,-87.7829,-41.835278,37.351402,0.014807392
3.6363637,3.838384,-0.0066781454,-0.013511565,-84.59335,-34.842854,33.215794,0.015071828
3.6363637,3.878788,-0.007336121,-0.01350097,-80.198456,-27.066048,28.320099,0.015365379
3.6363637,3.9191918,-0.008045178,-0.013475597,-74.39511,-18.410284,22.552553,0.015694477
3.6363637,3.959596,-0.00881223,-0.0134347435,-66.95613,-8.777046,15.787109,0.016066978
3.6363637,4.0,-0.009644859,-0.013377707,-57.62826,1.9459985,7.88707,0.01649201
3.6868687,0.04040404,0.0005071424,0.00045681,1.1289111,-8.614952,5.4844027,0.0006825458
3.6868687,0.08080808,0.00053677335,0.00043215416,0.78851384,-10.681229,6.130342,0.0006891174
3.6868687,0.121212125,0.0005704127,0.00040273368,0.51312286,-12.704201,6.748312,0.00069825863
3.6868687,0.16161616,0.0006075986,0.00036878698,0.3000745,-14.685014,7.338297,0.00071076007
3.6868687,0.2020202,0.00064814463,0.00033015385,0.14705606,-16.625713,7.9005117,0.0007273878
3.6868687,0.24242425,0.00069149956,0.00028695352,0.050283864,-18.528875,8.435484,0.0007486748
3.6868687,0.28282827,0.0007375516,0.00023921579,0.006953017,-20.395916,8.944399,0.0007753751
3.6868687,0.32323232,0.0007858388,0.0001869537,0.01306566,-22.230314,9.4284115,0.0008077712
3.6868687,0.36363637,0.00083614886,0.00013023801,0.06509911,-24.034042,9.889043,0.00084623095
3.6868687,0.4040404,0.0008881353,6.903149e-05,0.15775256,-25.811224,10.328161,0.00089081406
3.6868687,0.44444445,0.00094144046,3.4086406e-06,0.28709528,-27.564194,10.747855,0.00094144663
3.6868687,0.4848485,0.0009959154,-6.675534e-05,0.4476796,-29.297325,11.1503935,0.0009981501
3.6868687,0.5252525,0.0010511205,-0.00014119595,0.63418365,-31.014025,11.538362,0.0010605615
3.6868687,0.56565654,0.00110697,-0.00022005662,0.84157366,-32.717937,11.914495,0.0011286308
3.6868687,0.6060606,0.0011631213,-0.00030336902,1.0637226,-34.41354,12.281675,0.0012020333
3.6868687,0.64646465,0.001219321,-0.00039097853,1.294643,-36.10437,12.642901,0.0012804718
3.6868687,0.68686867,0.0012753755,-0.00048304535,1.5284497,-37.794624,13.000975,0.0013637871
3.6868687,0.72727275,0.0013310909,-0.00057949685,1.7589235,-39.48795,13.359344,0.0014517643
3.6868687,0.7676768,0.0013863295,-0.0006803237,1.9801525,-41.188324,13.720938,0.0015442636
3.6868687,0.8080808,0.0014409646,-0.000785619,2.1855342,-42.899498,14.0890875,0.0016412118
3.6868687,0.8484849,0.001494728,-0.00089531206,2.3688498,-44.62499,14.466459,0.0017423534
3.6868687,0.8888889,0.0015475415,-0.0010093469,2.5242944,-46.36731,14.8564,0.0018476108
3.6868687,0.9292929,0.0015993416,-0.0011279024,2.6459057,-48.129566,15.261593,0.0019570533
3.6868687,0.969697,0.0016499907,-0.0012508053,2.7279367,-49.91365,15.684778,0.002070503
3.6868687,1.010101,0.0016994737,-0.0013783388,2.764972,-51.721825,16.128668,0.0021881564
3.6868687,1.050505,0.0017477013,-0.0015102196,2.7515442,-53.55484,16.595242,0.0023098101
3.6868687,1.0909091,0.0017946251,-0.0016466212,2.68372,-55.413383,17.087027,0.002435578
3.6868687,1.1313131,0.0018402375,-0.0017875377,2.5555334,-57.298004,17.605518,0.0025654952
3.6868687,1.1717172,0.0018844493,-0.0019328687,2.3640425,-59.207264,18.152435,0.0026994685
3.6868687,1.2121212,0.0019272752,-0.0020827781,2.1052814,-61.14023,18.729088,0.002837667
3.6868687,1.2525252,0.0019687004,-0.0022370387,1.7764664,-63.093773,19.336449,0.0029799535
3.6868687,1.2929293,0.0020087548,-0.002395779,1.3747127,-65.06635,19.975286,0.003126476
3.6868687,1.3333334,0.0020473748,-0.0025589094,0.89809936,-67.05298,20.64573,0.0032771574
3.6868687,1.3737373,0.0020846687,-0.002726376,0.34515575,-69.04984,21.3479,0.0034320503
3.6868687,1.4141414,0.0021206103,-0.0028981157,-0.28442052,-71.05112,22.081882,0.0035911088
3.6868687,1.4545455,0.0021551736,-0.003074076,-0.99162674,-73.05105,22.846474,0.003754293
3.6868687,1.4949495,0.0021882541,-0.0032541268,-1.7757746,-75.0433,23.640701,0.0039214534
3.6868687,1.5353535,0.0022199117,-0.0034381133,-2.6359472,-77.02011,24.463575,0.004092509
3.6868687,1.5757576,0.0022501647,-0.003626123,-3.5706103,-78.97385,25.31337,0.004267553
3.6868687,1.6161616,0.0022790544,-0.0038178116,-4.5782485,-80.89685,26.188095,0.004446321
3.6868687,1.6565657,0.0023063533,-0.0040129907,-5.655555,-82.778854,27.085838,0.0046285377
3.6868687,1.6969697,0.0023320913,-0.004211666,-6.799923,-84.61217,28.00378,0.004814227
3.6868687,1.7373737,0.0023561604,-0.0044134147,-8.008246,-86.38723,28.939545,0.0050029713
3.6868687,1.7777778,0.0023784935,-0.0046182536,-9.276103,-88.09459,29.89034,0.0051947567
3.6868687,1.8181819,0.0023989044,-0.004825756,-10.600139,-89.72538,30.852644,0.0053891246
3.6868687,1.8585858,0.0024173819,-0.0050357524,-11.97503,-91.270836,31.82412,0.005585923
3.6868687,1.8989899,0.0024336241,-0.0052479785,-13.397367,-92.72205,32.800926,0.005784791
3.6868687,1.939394,0.0024475344,-0.005462084,-14.861261,-94.070244,33.78021,0.005985381
3.6868687,1.979798,0.0024587922,-0.005677812,-16.364128,-95.31035,34.758015,0.006187342
3.6868687,2.020202,0.0024672486,-0.0058948193,-17.89903,-96.432655,35.731567,0.0063903215
3.6868687,2.060606,0.0024725758,-0.006112801,-19.463226,-97.43343,36.69729,0.006593934
3.6868687,2.10101,0.002474632,-0.0063314643,-21.051722,-98.30687,37.65224,0.006797885
3.6868687,2.1414142,0.002472937,-0.006550405,-22.661674,-99.05025,38.593178,0.0070016584
3.6868687,2.1818182,0.0024670549,-0.006769402,-24.289032,-99.660225,39.517097,0.00720494
3.6868687,2.2222223,0.002456952,-0.006987894,-25.93032,-100.13528,40.42229,0.0074072448
3.6868687,2.2626262,0.0024419688,-0.007205624,-27.583181,-100.47539,41.305004,0.0076081688
3.6868687,2.3030303,0.0024218298,-0.007422369,-29.246347,-100.68244,42.16416,0.007807485
3.6868687,2.3434343,0.0023958795,-0.0076376125,-30.918106,-100.75814,42.99654,0.008004584
3.6868687,2.3838384,0.0023640878,-0.00785123,-32.597187,-100.70646,43.80172,0.008199434
3.6868687,2.4242425,0.0023256354,-0.008062763,-34.28471,-100.53276,44.57753,0.008391468
3.6868687,2.4646466,0.0022801198,-0.008271892,-35.979652,-100.24199,45.3228,0.008580392
3.6868687,2.5050504,0.0022271685,-0.008478513,-37.684967,-99.842865,46.037056,0.008766155
3.6868687,2.5454545,0.0021661632,-0.008682132,-39.40071,-99.34071,46.719406,0.008948278
3.6868687,2.5858586,0.0020966828,-0.008882616,-41.129803,-98.74469,47.369038,0.009126715
3.6868687,2.6262627,0.0020182505,-0.009079743,-42.874733,-98.0633,47.986332,0.009301348
3.6868687,2.6666667,0.001930248,-0.009273216,-44.638687,-97.30525,48.570755,0.009471979
3.6868687,2.7070708,0.0018323213,-0.009462893,-46.42401,-96.47752,49.121853,0.009638659
3.6868687,2.7474747,0.0017239712,-0.009648586,-48.23446,-95.59016,49.64002,0.0098013915
3.6868687,2.7878788,0.0016045906,-0.009830145,-50.073563,-94.64935,50.124596,0.009960244
3.6868687,2.8282828,0.0014739037,-0.010007337,-51.942738,-93.660515,50.57543,0.010115295
3.6868687,2.868687,0.0013314784,-0.010180119,-53.84552,-92.629585,50.99199,0.010266824
3.6868687,2.909091,0.001176741,-0.010348326,-55.782185,-91.558495,51.373314,0.010415016
3.6868687,2.9494948,0.001009319,-0.0105117,-57.753838,-90.44916,51.71711,0.010560045
3.6868687,2.989899,0.00082893297,-0.0106703285,-59.76052,-89.300545,52.022533,0.010702478
3.6868687,3.030303,0.00063503534,-0.010823885,-61.79975,-88.11046,52.28568,0.010842497
3.6868687,3.070707,0.00042737648,-0.010972332,-63.86728,-86.87067,52.503693,0.010980653
3.6868687,3.1111112,0.00020559877,-0.011115532,-65.95797,-85.575264,52.67174,0.011117434
3.6868687,3.1515152,-3.0707568e-05,-0.011253208,-68.06428,-84.21166,52.78434,0.01125325
3.6868687,3.191919,-0.00028190017,-0.011385245,-70.17454,-82.76599,52.83399,0.011388734
3.6868687,3.2323232,-0.0005483292,-0.011511467,-72.27625,-81.221275,52.811893,0.01152452
3.6868687,3.2727273,-0.0008303933,-0.011631511,-74.351524,-79.55736,52.708286,0.011661115
3.6868687,3.3131313,-0.0011285432,-0.011745168,-76.38081,-77.752205,52.51062,0.011799262
3.6868687,3.3535354,-0.0014432073,-0.0118521415,-78.3387,-75.78011,52.20458,0.011939686
3.6868687,3.3939395,-0.0017750859,-0.011951974,-80.19492,-73.61182,51.77172,0.012083071
3.6868687,3.4343433,-0.0021247752,-0.012044331,-81.9152,-71.21716,51.19358,0.012230314
3.6868687,3.4747474,-0.0024930574,-0.01212885,-83.45766,-68.561104,50.44555,0.012382421
3.6868687,3.5151515,-0.0028808825,-0.012204975,-84.77523,-65.60947,49.50143,0.01254037
3.6868687,3.5555556,-0.0032895654,-0.01227222,-85.81073,-62.319584,48.32817,0.012705456
3.6868687,3.5959597,-0.0037203021,-0.012330029,-86.49844,-58.65011,46.88997,0.012879063
3.6868687,3.6363637,-0.0041747503,-0.012377765,-86.764305,-54.554497,45.145668,0.013062833
3.6868687,3.6767676,-0.0046549477,-0.012414925,-86.51985,-49.983097,43.045662,0.013258918
3.6868687,3.7171717,-0.005163323,-0.012440838,-85.66472,-44.88084,40.534763,0.0134697575
3.6868687,3.7575758,-0.0057026036,-0.012454748,-84.08415,-39.18849,37.549614,0.013698191
3.6868687,3.7979798,-0.0062761195,-0.012456093,-81.644325,-32.838554,34.017902,0.0139479
3.6868687,3.838384,-0.0068877228,-0.012443988,-78.19516,-25.760798,29.858198,0.0142229935
3.6868687,3.878788,-0.0075421073,-0.012417797,-73.56395,-17.873322,24.977245,0.014528766
3.6868687,3.9191918,-0.008244716,-0.012376757,-67.55489,-9.08585,19.270287,0.014871431
3.6868687,3.959596,-0.009001318,-0.01232012,-59.949497,0.7011079,12.621975,0.015258082
3.6868687,4.0,-0.0098194145,-0.012247128,-50.50228,11.598758,4.901931,0.01569755
3.7373738,0.04040404,0.0005218722,0.0004689861,1.2714384,-8.348266,5.4277763,0.0007016399
3.7373738,0.08080808,0.00055322424,0.000444863,0.92416984,-10.355407,6.095505,0.0007099015
3.7373738,0.121212125,0.0005886145,0.00041630305,0.6392826,-12.317681,6.735108,0.0007209544
3.7373738,0.16161616,0.00062770024,0.00038322993,0.41484627,-14.237192,7.3465543,0.0007354405
3.7373738,0.2020202,0.0006701574,0.00034564175,0.2482207,-16.11498,7.9301662,0.0007540419
3.7373738,0.24242425,0.0007157251,0.00030371733,0.1367382,-17.95334,8.4863825,0.0007775002
3.7373738,0.28282827,0.0007639788,0.0002573505,0.07694577,-19.754423,9.016008,0.00080615934
3.7373738,0.32323232,0.00081468,0.00020669028,0.06548782,-21.520716,9.520285,0.00084049057
3.7373738,0.36363637,0.00086744875,0.00015177019,0.09833792,-23.255106,10.000807,0.0008806256
3.7373738,0.4040404,0.000921946,9.249151e-05,0.17133033,-24.9604,10.45903,0.0009265739
3.7373738,0.44444445,0.0009780042,2.90405e-05,0.28010702,-26.639885,10.897407,0.0009784353
3.7373738,0.4848485,0.0010350905,-3.867224e-05,0.4194528,-28.297194,11.317865,0.0010358127
3.7373738,0.5252525,0.0010930635,-0.00011057779,0.58467466,-29.935926,11.723039,0.0010986425
3.7373738,0.56565654,0.0011516586,-0.00018664263,0.7701797,-31.559668,12.115475,0.0011666846
3.7373738,0.6060606,0.0012106076,-0.000266945,0.97014314,-33.172764,12.498195,0.0012396895
3.7373738,0.64646465,0.0012696125,-0.00035127066,1.1793532,-34.778828,12.873849,0.0013173105
3.7373738,0.68686867,0.0013285987,-0.00043989718,1.3913858,-36.38214,13.24574,0.0013995299
3.7373738,0.72727275,0.0013871491,-0.00053258054,1.6002232,-37.98643,13.616808,0.0014858751
3.7373738,0.7676768,0.0014452077,-0.0006294567,1.8002822,-39.595367,13.990141,0.0015763378
3.7373738,0.8080808,0.0015025511,-0.0007305462,1.9848571,-41.213387,14.369002,0.0016707357
3.7373738,0.8484849,0.0015590638,-0.00083563104,2.1486533,-42.84266,14.7563095,0.0017688865
3.7373738,0.8888889,0.0016145669,-0.00094499625,2.2848105,-44.487335,15.155033,0.001870787
3.7373738,0.9292929,0.0016689859,-0.0010585785,2.3876872,-46.150238,15.568128,0.0019763862
3.7373738,0.969697,0.0017221346,-0.0011763033,2.4521198,-47.832993,15.998338,0.0020855304
3.7373738,1.010101,0.0017739721,-0.0012982208,2.4720552,-49.538395,16.44819,0.0021982617
3.7373738,1.050505,0.0018245392,-0.0014243461,2.4427924,-51.267002,16.920038,0.0023146716
3.7373738,1.0909091,0.0018735752,-0.0015547033,2.3590658,-53.020206,17.41596,0.0024346225
3.7373738,1.1313131,0.0019211583,-0.0016892869,2.2167614,-54.797962,17.938076,0.0025582297
3.7373738,1.1717172,0.0019672029,-0.0018279627,2.0113847,-56.599632,18.487785,0.002685393
3.7373738,1.2121212,0.0020116009,-0.001970917,1.7399266,-58.4239,19.066511,0.0028162124
3.7373738,1.2525252,0.0020545796,-0.0021180678,1.3991935,-60.26858,19.675417,0.0029508488
3.7373738,1.2929293,0.0020958781,-0.002269294,0.98605233,-62.131695,20.31501,0.0030890778
3.7373738,1.3333334,0.0021355972,-0.0024246871,0.49871317,-64.00878,20.985882,0.0032310807
3.7373738,1.3737373,0.0021737404,-0.002584163,-0.06398253,-65.896164,21.68778,0.0033768397
3.7373738,1.4141414,0.0022102855,-0.0027475841,-0.70293474,-67.78792,22.421017,0.0035262702
3.7373738,1.4545455,0.0022451393,-0.0029149726,-1.4189124,-69.67884,23.184387,0.0036793635
3.7373738,1.4949495,0.002278369,-0.0030861646,-2.2114155,-71.56242,23.977245,0.0038360627
3.7373738,1.5353535,0.0023099817,-0.0032611005,-3.0788348,-73.430756,24.798204,0.0039963475
3.7373738,1.5757576,0.0023398139,-0.0034396257,-4.0211306,-75.276825,25.645712,0.0041600186
3.7373738,1.6161616,0.002368033,-0.0036216304,-5.0350385,-77.091896,26.517916,0.0043270993
3.7373738,1.6565657,0.0023944303,-0.0038069412,-6.1185474,-78.867256,27.412668,0.0044973437
3.7373738,1.6969697,0.0024189688,-0.0039953645,-7.2685604,-80.59392,28.327074,0.004670583
3.7373738,1.7373737,0.002441626,-0.0041866917,-8.481244,-82.26216,29.259205,0.0048466404
3.7373738,1.7777778,0.0024622306,-0.0043807346,-9.75348,-83.86343,30.205473,0.005025278
3.7373738,1.8181819,0.0024807043,-0.0045772064,-11.080396,-85.387634,31.163176,0.0052062185
3.7373738,1.8585858,0.0024968162,-0.004775973,-12.457878,-86.826294,32.1288,0.0053892494
3.7373738,1.8989899,0.0025105663,-0.0049766097,-13.88075,-88.16971,33.099274,0.00557401
3.7373738,1.939394,0.0025216602,-0.0051789396,-15.34472,-89.41026,34.070686,0.0057602245
3.7373738,1.979798,0.0025299378,-0.0053826123,-16.844793,-90.53969,35.04011,0.005947529
3.7373738,2.020202,0.0025350861,-0.005587328,-18.375954,-91.550964,36.00361,0.006135544
3.7373738,2.060606,0.0025369115,-0.0057927165,-19.934132,-92.43824,36.958023,0.006323882
3.7373738,2.10101,0.0025351085,-0.0059984997,-21.513565,-93.195526,37.8997,0.006512202
3.7373738,2.1414142,0.0025293939,-0.0062042847,-23.111145,-93.81947,38.82546,0.0067000734
3.7373738,2.1818182,0.0025193766,-0.006409727,-24.722221,-94.30678,39.73224,0.006887079
3.7373738,2.2222223,0.00250474,-0.0066144858,-26.343618,-94.65523,40.617374,0.0070728455
3.7373738,2.2626262,0.002485089,-0.006818287,-27.973076,-94.866,41.477364,0.0072570452
3.7373738,2.3030303,0.0024601072,-0.00702071,-29.606443,-94.938705,42.31053,0.007439254
3.7373738,2.3434343,0.0024291873,-0.007221414,-31.243666,-94.87613,43.114223,0.00761904
3.7373738,2.3838384,0.0023920164,-0.007420074,-32.882122,-94.68152,43.886395,0.0077961045
3.7373738,2.4242425,0.0023481622,-0.007616412,-34.52228,-94.360954,44.625854,0.007970169
3.7373738,2.4646466,0.0022970363,-0.007810058,-36.163685,-93.91996,45.330494,0.008140847
3.7373738,2.5050504,0.0022383295,-0.008000769,-37.8073,-93.36515,45.999676,0.008307974
3.7373738,2.5454545,0.0021713711,-0.008188194,-39.45349,-92.70507,46.6324,0.008471208
3.7373738,2.5858586,0.002095852,-0.00837223,-41.105076,-91.94893,47.228134,0.008630576
3.7373738,2.6262627,0.0020111613,-0.008552559,-42.764343,-91.1061,47.786144,0.008785843
3.7373738,2.6666667,0.0019167848,-0.008728933,-44.433094,-90.18525,48.306015,0.008936908
3.7373738,2.7070708,0.001812432,-0.008901287,-46.1145,-89.1967,48.788326,0.009083932
3.7373738,2.7474747,0.0016973391,-0.0090693105,-47.81284,-88.14987,49.23182,0.009226774
3.7373738,2.7878788,0.0015713274,-0.009232895,-49.52939,-87.05326,49.636986,0.009365651
3.7373738,2.8282828,0.0014337264,-0.009391956,-51.267998,-85.9143,50.003273,0.009500759
3.7373738,2.868687,0.0012841634,-0.009546328,-53.030033,-84.739334,50.330196,0.009632314
3.7373738,2.909091,0.0011221655,-0.009695953,-54.818836,-83.534485,50.616615,0.009760674
3.7373738,2.9494948,0.00094749033,-0.009840693,-56.633106,-82.30128,50.86168,0.0098862015
3.7373738,2.989899,0.0007595122,-0.009980386,-58.474197,-81.0411,51.062878,0.010009244
3.7373738,3.030303,0.0005580336,-0.0101150405,-60.339657,-79.75312,51.218178,0.010130422
3.7373738,3.070707,0.0003426671,-0.010244546,-62.22643,-78.43234,51.324406,0.010250276
3.7373738,3.1111112,0.00011301413,-0.0103688,-64.12911,-77.07146,51.376907,0.010369415
3.7373738,3.1515152,-0.0001312457,-0.010487594,-66.04036,-75.66104,51.369972,0.010488415
3.7373738,3.191919,-0.0003905557,-0.010600867,-67.94941,-74.18704,51.297367,0.010608058
3.7373738,3.2323232,-0.0006651059,-0.010708472,-69.84365,-72.633385,51.150852,0.010729107
3.7373738,3.2727273,-0.0009553246,-0.010810135,-71.70558,-70.978806,50.920254,0.010852265
3.7373738,3.3131313,-0.0012617223,-0.010905707,-73.51592,-69.20156,50.59398,0.010978451
3.7373738,3.3535354,-0.0015846528,-0.010994855,-75.24931,-67.27396,50.15823,0.011108464
3.7373738,3.3939395,-0.0019246154,-0.011077309,-76.87732,-65.1673,49.59619,0.01124326
3.7373738,3.4343433,-0.002282355,-0.011152655,-78.36349,-62.84555,48.88835,0.011383798
3.7373738,3.4747474,-0.0026583932,-0.011220576,-79.669556,-60.276417,48.013336,0.011531192
3.7373738,3.5151515,-0.0030537993,-0.0112806745,-80.74681,-57.41761,46.944,0.011686715
3.7373738,3.5555556,-0.003469497,-0.011332285,-81.53903,-54.225494,45.651283,0.011851502
3.7373738,3.5959597,-0.0039066263,-0.011375016,-81.98436,-50.65646,44.100418,0.012027165
3.7373738,3.6363637,-0.004366938,-0.011408124,-82.00696,-46.658314,42.25118,0.012215378
3.7373738,3.6767676,-0.004851889,-0.011431195,-81.52473,-42.17951,40.05921,0.012418254
3.7373738,3.7171717,-0.005363982,-0.01144339,-80.43796,-37.159767,37.47115,0.012638176
3.7373738,3.7575758,-0.005905483,-0.011444129,-78.63552,-31.536966,34.42897,0.012877998
3.7373738,3.7979798,-0.006479468,-0.011432553,-75.991196,-25.24424,30.864716,0.013141034
3.7373738,3.838384,-0.0070895515,-0.011407964,-72.359634,-18.206554,26.70202,0.013431433
3.7373738,3.878788,-0.007739879,-0.0113694705,-67.5735,-10.340798,21.854641,0.01375393
3.7373738,3.9191918,-0.008435298,-0.011316368,-61.447517,-1.5579628,16.22614,0.014114334
3.7373738,3.959596,-0.009181414,-0.01124776,-53.773434,8.23971,9.708844,0.014519313
3.7373738,4.0,-0.00998484,-0.011162721,-44.310112,19.165203,2.180423,0.014976761
3.7878788,0.04040404,0.0005367696,0.00047878549,1.4059085,-8.079599,5.3550205,0.00071927544
3.7878788,0.08080808,0.0005696453,0.00045530498,1.0506539,-10.025594,6.043276,0.0007292451
3.7878788,0.121212125,0.0006066598,0.0004274808,0.7550089,-11.926192,6.703344,0.0007421428
3.7878788,0.16161616,0.0006475039,0.00039524958,0.51859415,-13.781847,7.3351555,0.0007586063
3.7878788,0.2020202,0.00069186836,0.0003588572,0.33787027,-15.594816,7.93894,0.00077939744
3.7878788,0.24242425,0.00073948875,0.00031814724,0.2105844,-17.366735,8.514892,0.00080502254
3.7878788,0.28282827,0.0007897876,0.00027326867,0.1332365,-19.099707,9.063899,0.0008357274
3.7878788,0.32323232,0.0008427538,0.00022424571,0.103480905,-20.79601,9.587185,0.00087207806
3.7878788,0.36363637,0.0008978136,0.00017105788,0.11696046,-22.458368,10.086119,0.0009139639
3.7878788,0.4040404,0.0009547211,0.0001138784,0.16958158,-24.089539,10.562398,0.0009614888
3.7878788,0.44444445,0.001013115,5.264394e-05,0.25705764,-25.692827,11.017874,0.0010144819
3.7878788,0.4848485,0.0010727681,-1.2598932e-05,0.3749357,-27.271748,11.454821,0.001072842
3.7878788,0.5252525,0.0011333637,-8.183345e-05,0.51841867,-28.829435,11.875708,0.0011363142
3.7878788,0.56565654,0.001194533,-0.00015503727,0.6815854,-30.370472,12.282931,0.001204552
3.7878788,0.6060606,0.0012561567,-0.00023214146,0.8599863,-31.897768,12.679468,0.0012774268
3.7878788,0.64646465,0.0013178773,-0.0003131926,1.0471821,-33.41595,13.068186,0.0013545812
3.7878788,0.68686867,0.001379393,-0.0003981553,1.2374792,-34.928967,13.452079,0.0014357064
3.7878788,0.72727275,0.0014406592,-0.0004870165,1.425355,-36.440292,13.834127,0.001520751
3.7878788,0.7676768,0.001501359,-0.00057978183,1.604493,-37.954315,14.217359,0.0016094178
3.7878788,0.8080808,0.0015612654,-0.000676468,1.7692213,-39.4748,14.605065,0.0017015166
3.7878788,0.8484849,0.0016203374,-0.00077698566,1.9134296,-41.004578,15.000144,0.0017969975
3.7878788,0.8888889,0.0016783066,-0.0008814633,2.031374,-42.54768,15.405758,0.0018957031
3.7878788,0.9292929,0.0017351396,-0.0009898562,2.116857,-44.106464,15.824619,0.0019976299
3.7878788,0.969697,0.0017906055,-0.0011021458,2.1642454,-45.683964,16.259481,0.0021026158
3.7878788,1.010101,0.0018447451,-0.0012183972,2.1685908,-47.282093,16.713072,0.0022107863
3.7878788,1.050505,0.001897309,-0.0013385378,2.124485,-48.902187,17.187737,0.0023219527
3.7878788,1.0909091,0.0019482337,-0.0014625881,2.0271244,-50.545174,17.68552,0.00243614
3.7878788,1.1313131,0.0019975938,-0.0015905239,1.8721011,-52.21164,18.208466,0.0025534579
3.7878788,1.1717172,0.002045337,-0.0017225258,1.6555265,-53.90098,18.758352,0.0026740415
3.7878788,1.2121212,0.002091352,-0.0018583052,1.3736213,-55.612316,19.336437,0.0027976867
3.7878788,1.2525252,0.0021355338,-0.0019980147,1.022965,-57.34372,19.943928,0.0029244774
3.7878788,1.2929293,0.0021778978,-0.0021415502,0.6012437,-59.092587,20.581324,0.0030544193
3.7878788,1.3333334,0.0022185333,-0.0022889394,0.106281586,-60.856174,21.24915,0.0031876534
3.7878788,1.3737373,0.0022573993,-0.0024401546,-0.4629826,-62.62935,21.948046,0.003324185
3.7878788,1.4141414,0.0022942908,-0.0025950093,-1.1082011,-64.40803,22.677063,0.0034637903
3.7878788,1.4545455,0.002329383,-0.0027535036,-1.8295518,-66.18622,23.436054,0.003606634
3.7878788,1.4949495,0.0023625754,-0.0029155463,-2.625957,-67.95681,24.22401,0.003752622
3.7878788,1.5353535,0.0023939386,-0.0030811168,-3.4969864,-69.7135,25.03967,0.003901823
3.7878788,1.5757576,0.0024232417,-0.003249921,-4.441861,-71.44876,25.881464,0.0040538977
3.7878788,1.6161616,0.0024506114,-0.0034219604,-5.4578547,-73.153725,26.747341,0.004208956
3.7878788,1.6565657,0.0024759285,-0.0035970137,-6.5428543,-74.82017,27.635525,0.0043667755
3.7878788,1.6969697,0.0024992116,-0.003774967,-7.6932774,-76.43897,28.543,0.0045272987
3.7878788,1.7373737,0.0025202334,-0.003955573,-8.905977,-78.00036,29.467438,0.004690217
3.7878788,1.7777778,0.002538938,-0.0041385423,-10.176702,-79.49515,30.40566,0.0048552793
3.7878788,1.8181819,0.0025553107,-0.004323803,-11.501442,-80.9138,31.354866,0.0050224382
3.7878788,1.8585858,0.0025690682,-0.0045109577,-12.875199,-82.24662,32.311268,0.0051912284
3.7878788,1.8989899,0.0025800876,-0.0046998356,-14.294131,-83.48575,33.271576,0.005361465
3.7878788,1.939394,0.0025883205,-0.0048901476,-15.752048,-84.62142,34.232304,0.005532897
3.7878788,1.979798,0.0025933832,-0.005081473,-17.244528,-85.64586,35.18971,0.005704998
3.7878788,2.020202,0.0025950707,-0.0052736476,-18.765694,-86.55083,36.13995,0.0058775633
3.7878788,2.060606,0.002593279,-0.0054662935,-20.311499,-87.33127,37.079967,0.0060502444
3.7878788,2.10101,0.0025875792,-0.0056589134,-21.876612,-87.98006,38.005684,0.006222449
3.7878788,2.1414142,0.002577711,-0.0058514904,-23.456644,-88.49393,38.91358,0.0063941013
3.7878788,2.1818182,0.0025633574,-0.006043393,-25.046743,-88.86859,39.800606,0.0065645566
3.7878788,2.2222223,0.0025441535,-0.006234443,-26.643942,-89.1029,40.663322,0.006733572
3.7878788,2.2626262,0.00251979,-0.0064241476,-28.244179,-89.196014,41.49893,0.0069006532
3.7878788,2.3030303,0.002489768,-0.0066122394,-29.844423,-89.14773,42.30452,0.007065455
3.7878788,2.3434343,0.0024537854,-0.006798338,-31.442713,-88.96083,43.077854,0.0072276182
3.7878788,2.3838384,0.0024112873,-0.0069821496,-33.03712,-88.639435,43.816437,0.0073867934
3.7878788,2.4242425,0.0023619942,-0.0071633533,-34.626595,-88.187546,44.518494,0.0075427215
3.7878788,2.4646466,0.0023053065,-0.0073416755,-36.211254,-87.61287,45.18253,0.007695105
3.7878788,2.5050504,0.002240803,-0.007516697,-37.7903,-86.920746,45.806946,0.007843592
3.7878788,2.5454545,0.0021679737,-0.0076882634,-39.366005,-86.12169,46.390446,0.007988085
3.7878788,2.5858586,0.002086427,-0.007856118,-40.93838,-85.22367,46.932587,0.008128453
3.7878788,2.6262627,0.001995679,-0.008019993,-42.510303,-84.23733,47.432762,0.008264564
3.7878788,2.6666667,0.0018950216,-0.008179698,-44.08412,-83.174,47.889927,0.008396342
3.7878788,2.7070708,0.0017841868,-0.008335061,-45.662334,-82.04309,48.30474,0.008523882
3.7878788,2.7474747,0.0016626529,-0.0084859505,-47.247684,-80.85572,48.676334,0.008647298
3.7878788,2.7878788,0.0015299581,-0.008632168,-48.84405,-79.62254,49.004658,0.008766704
3.7878788,2.8282828,0.0013856702,-0.008773603,-50.453167,-78.352,49.28948,0.008882352
3.7878788,2.868687,0.0012292899,-0.008910254,-52.07758,-77.051865,49.530823,0.008994653
3.7878788,2.909091,0.0010604002,-0.009041894,-53.719284,-75.72989,49.72668,0.009103862
3.7878788,2.9494948,0.0008786544,-0.009168593,-55.380642,-74.39131,49.877033,0.009210599
3.7878788,2.989899,0.0006836504,-0.009290248,-57.060482,-73.03833,49.980167,0.009315369
3.7878788,3.030303,0.0004749298,-0.009406736,-58.758,-71.67098,50.03361,0.009418718
3.7878788,3.070707,0.00025230274,-0.009518126,-60.469788,-70.28684,50.034103,0.0095214695
3.7878788,3.1111112,1.5262514e-05,-0.009624219,-62.1919,-68.88047,49.978214,0.009624231
3.7878788,3.1515152,-0.00023645535,-0.009725096,-63.916595,-67.443275,49.860596,0.00972797
3.7878788,3.191919,-0.0005032085,-0.00982053,-65.634796,-65.96345,49.67541,0.009833414
3.7878788,3.2323232,-0.00078530237,-0.009910515,-67.33397,-64.424255,49.414417,0.00994158
3.7878788,3.2727273,-0.0010831244,-0.009994864,-68.997284,-62.80666,49.068447,0.010053381
3.7878788,3.3131313,-0.0013970248,-0.010073345,-70.60543,-61.087,48.626408,0.0101697575
3.7878788,3.3535354,-0.0017274246,-0.010145916,-72.13545,-59.238968,48.075405,0.010291919
3.7878788,3.3939395,-0.0020747446,-0.010212168,-73.55681,-57.230694,47.398937,0.010420794
3.7878788,3.4343433,-0.002439756,-0.010271877,-74.83737,-55.028828,46.579147,0.010557645
3.7878788,3.4747474,-0.0028227605,-0.010324538,-75.935524,-52.593246,45.594444,0.01070346
3.7878788,3.5151515,-0.0032247752,-0.0103699975,-76.806335,-49.883606,44.42054,0.010859836
3.7878788,3.5555556,-0.0036466084,-0.010407643,-77.39501,-46.854206,43.02919,0.011028
3.7878788,3.5959597,-0.0040894337,-0.010436883,-77.63991,-43.455193,41.38674,0.011209461
3.7878788,3.6363637,-0.004554577,-0.010457331,-77.46934,-39.634583,39.456875,0.011406137
3.7878788,3.6767676,-0.005043667,-0.0104682185,-76.799484,-35.33217,37.19577,0.011619904
3.7878788,3.7171717,-0.005558487,-0.010468915,-75.53857,-30.490143,34.55493,0.011853057
3.7878788,3.7575758,-0.0061015002,-0.0104587395,-73.5776,-25.040752,31.479515,0.012108408
3.7878788,3.7979798,-0.0066753514,-0.010436861,-70.79472,-18.913702,27.905436,0.012389042
3.7878788,3.838384,-0.0072832406,-0.010402406,-67.05129,-12.033256,23.762604,0.012698647
3.7878788,3.878788,-0.007929102,-0.010354621,-62.187576,-4.313587,18.969893,0.013041811
3.7878788,3.9191918,-0.0086170435,-0.010292601,-56.026165,4.3349686,13.438404,0.013423527
3.7878788,3.959596,-0.009352513,-0.010215422,-48.36712,14.009857,7.066471,0.013850066
3.7878788,4.0,-0.01014128,-0.010121973,-38.983162,24.820864,-0.25777578,0.014328291
3.838384,0.04040404,0.0005517043,0.00048610754,1.5305339,-7.809532,5.2660084,0.0007353083
3.838384,0.08080808,0.0005859658,0.00046325848,1.1660063,-9.693443,5.9735084,0.0007469701
3.838384,0.121212125,0.0006245896,0.00043620355,0.8597428,-11.529972,6.652835,0.00076183054
3.838384,0.16161616,0.00066707656,0.00040491298,0.6098028,-13.32113,7.3037424,0.0007803497
3.838384,0.2020202,0.0007132031,0.00036956556,0.414152,-15.067605,7.9261847,0.0008032667
3.838384,0.24242425,0.0007626228,0.00033024512,0.2703239,-16.771177,8.520687,0.0008310568
3.838384,0.28282827,0.00081497803,0.00028678775,0.17566232,-18.434,9.087866,0.0008639655
3.838384,0.32323232,0.00086990744,0.00023949891,0.12658402,-20.058249,9.62886,0.00090227416
3.838384,0.36363637,0.0009271018,0.00018824078,0.120258145,-21.646303,10.1448145,0.00094601925
3.838384,0.4040404,0.0009862408,0.00013314188,0.15223598,-23.201214,10.637522,0.0009951872
3.838384,0.44444445,0.0010469928,7.4189156e-05,0.21872368,-24.725954,11.108804,0.001049618
3.838384,0.4848485,0.001108963,1.1419877e-05,0.31486455,-26.2239,11.560706,0.0011090218
3.838384,0.5252525,0.0011719093,-5.5048615e-05,0.43635762,-27.698257,11.995604,0.0011732015
3.838384,0.56565654,0.001235567,-0.00012526661,0.5779282,-29.153313,12.4162035,0.0012419008
3.838384,0.6060606,0.0012996197,-0.00019915588,0.73411834,-30.592216,12.825123,0.0013147906
3.838384,0.64646465,0.0013637953,-0.0002767481,0.8996022,-32.01963,13.224945,0.0013915915
3.838384,0.68686867,0.001427792,-0.00035797805,1.0689982,-33.43895,13.619039,0.0014719844
3.838384,0.72727275,0.0014915839,-0.00044290163,1.2365707,-34.854492,14.010144,0.0015559513
3.838384,0.7676768,0.0015546344,-0.0005314164,1.3956909,-36.27003,14.40166,0.0016429521
3.838384,0.8080808,0.0016170442,-0.00062363036,1.5411216,-37.689655,14.796275,0.001733132
3.838384,0.8484849,0.0016784444,-0.0007194802,1.6670938,-39.116394,15.197207,0.0018261509
3.838384,0.8888889,0.0017387494,-0.0008189101,1.7674296,-40.554108,15.607515,0.0019219426
3.838384,0.9292929,0.0017977394,-0.00092195347,1.8367382,-42.005356,16.029903,0.0020203625
3.838384,0.969697,0.0018553697,-0.0010286737,1.8691728,-43.473595,16.467234,0.0021214539
3.838384,1.010101,0.0019114017,-0.001139041,1.8591034,-44.960304,16.922262,0.0022250551
3.838384,1.050505,0.001965925,-0.0012530424,1.8018892,-46.467827,17.397106,0.0023313037
3.838384,1.0909091,0.002018761,-0.0013706181,1.6934953,-47.996117,17.894375,0.0024400798
3.838384,1.1313131,0.002069641,-0.0014918372,1.5276774,-49.546986,18.415586,0.0025512725
3.838384,1.1717172,0.0021188632,-0.0016167462,1.3016313,-51.12021,18.962778,0.0026652296
3.838384,1.2121212,0.0021660924,-0.0017451942,1.0113642,-52.714466,19.537325,0.0027816647
3.838384,1.2525252,0.0022114255,-0.0018772818,0.6535433,-54.328472,20.140278,0.0029007911
3.838384,1.2929293,0.0022547133,-0.0020129513,0.22667406,-55.959118,20.772655,0.003022533
3.838384,1.3333334,0.0022960566,-0.0021520015,-0.2727611,-57.60425,21.43489,0.003146901
3.838384,1.3737373,0.0023353137,-0.0022947378,-0.8460181,-59.260147,22.126911,0.0032740666
3.838384,1.4141414,0.0023725778,-0.0024407953,-1.4931575,-60.92108,22.848913,0.0034039107
3.838384,1.4545455,0.0024077557,-0.0025902446,-2.2154486,-62.582203,23.600115,0.003536475
3.838384,1.4949495,0.0024407431,-0.0027429424,-3.0124917,-64.23736,24.379591,0.0036716426
3.838384,1.5353535,0.0024715923,-0.0028987527,-3.8833027,-65.87944,25.186598,0.0038094008
3.838384,1.5757576,0.002500277,-0.003057668,-4.8262634,-67.50106,26.018938,0.0039497744
3.838384,1.6161616,0.0025267191,-0.0032194983,-5.839597,-69.09376,26.875345,0.004092613
3.838384,1.6565657,0.0025508925,-0.0033840295,-6.921343,-70.64976,27.753155,0.0042377715
3.838384,1.6969697,0.0025725923,-0.0035512578,-8.067407,-72.15911,28.650133,0.004385164
3.838384,1.7373737,0.0025918894,-0.0037207846,-9.27467,-73.61253,29.563454,0.004534548
3.838384,1.7777778,0.0026086606,-0.003892526,-10.538965,-75.00135,30.490343,0.0046858154
3.838384,1.8181819,0.0026227087,-0.0040662643,-11.856351,-76.31506,31.427305,0.0048387093
3.838384,1.8585858,0.0026340298,-0.0042417496,-13.221907,-77.54519,32.371197,0.0049930504
3.838384,1.8989899,0.0026423149,-0.004418509,-14.630316,-78.68126,33.318253,0.0051483056
3.838384,1.939394,0.0026474558,-0.004596535,-16.076736,-79.715195,34.26454,0.005304447
3.838384,1.979798,0.0026492067,-0.004775455,-17.555899,-80.63873,35.20712,0.0054610684
3.838384,2.020202,0.0026474074,-0.0049548876,-19.062613,-81.44372,36.141357,0.0056178
3.838384,2.060606,0.002641853,-0.005134523,-20.590614,-82.12297,37.064148,0.005774315
3.838384,2.10101,0.0026322156,-0.0053141005,-22.136032,-82.67129,37.9711,0.0059302803
3.838384,2.1414142,0.00261816,-0.0054932535,-23.693571,-83.084,38.85892,0.006085277
3.838384,2.1818182,0.0025993884,-0.0056715496,-25.257948,-83.355896,39.724014,0.0062388536
3.838384,2.2222223,0.002575554,-0.0058486927,-26.825993,-83.486595,40.562935,0.0063906717
3.838384,2.2626262,0.0025464073,-0.0060242824,-28.392857,-83.47323,41.37249,0.006540349
3.838384,2.3030303,0.0025114305,-0.0061981343,-29.956303,-83.31843,42.149708,0.006687612
3.838384,2.3434343,0.0024702325,-0.0063697565,-31.512201,-83.02145,42.8917,0.0068319724
3.838384,2.3838384,0.0024224743,-0.006538814,-33.05918,-82.58798,43.596302,0.0069731246
3.838384,2.4242425,0.0023676269,-0.006705027,-34.59573,-82.021164,44.260735,0.00711077
3.838384,2.4646466,0.002305422,-0.0068681315,-36.12123,-81.329185,44.884274,0.007244736
3.838384,2.5050504,0.0022351295,-0.0070277583,-37.634686,-80.51758,45.464024,0.0073746312
3.838384,2.5454545,0.0021564849,-0.007183697,-39.137775,-79.59673,45.99975,0.0075003956
3.838384,2.5858586,0.002068974,-0.0073356703,-40.6307,-78.57628,46.489765,0.0076218573
3.838384,2.6262627,0.0019721277,-0.007483484,-42.11561,-77.46625,46.933624,0.007738981
3.838384,2.6666667,0.0018653311,-0.0076268837,-43.59441,-76.27829,47.330746,0.007851676
3.838384,2.7070708,0.0017482527,-0.0077657606,-45.069317,-75.02367,47.681015,0.007960115
3.838384,2.7474747,0.0016203225,-0.007899938,-46.543976,-73.7151,47.983395,0.008064395
3.838384,2.7878788,0.001481276,-0.008029293,-48.02085,-72.36299,48.239002,0.008164787
3.838384,2.8282828,0.0013305135,-0.008153778,-49.502632,-70.97839,48.446392,0.00826162
3.838384,2.868687,0.0011675842,-0.0082732625,-50.99321,-69.57196,48.605938,0.008355246
3.838384,2.909091,0.0009920858,-0.008387739,-52.49324,-68.151665,48.716766,0.008446206
3.838384,2.9494948,0.00080365315,-0.008497026,-54.004276,-66.72346,48.777885,0.0085349465
3.838384,2.989899,0.00060190633,-0.008601345,-55.527885,-65.29385,48.788467,0.00862238
3.838384,3.030303,0.0003864579,-0.008700481,-57.063152,-63.86391,48.746544,0.008709059
3.838384,3.070707,0.00015700236,-0.008794546,-58.60703,-62.43325,48.649082,0.008795948
3.838384,3.1111112,-8.695945e-05,-0.008883389,-60.156376,-60.998837,48.49289,0.008883814
3.838384,3.1515152,-0.00034557655,-0.008967141,-61.703728,-59.552204,48.273052,0.008973797
3.838384,3.191919,-0.00061924383,-0.009045685,-63.24177,-58.08455,47.98432,0.0090668565
3.838384,3.2323232,-0.0009083003,-0.009119008,-64.75687,-56.579323,47.6191,0.009164131
3.838384,3.2727273,-0.0012129396,-0.00918697,-66.23605,-55.02052,47.169365,0.009266695
3.838384,3.3131313,-0.0015338175,-0.009249531,-67.65821,-53.382645,46.62398,0.009375842
3.838384,3.3535354,-0.0018708669,-0.009306492,-69.00248,-51.64152,45.970997,0.009492679
3.838384,3.3939395,-0.00222487,-0.009357657,-70.2395,-49.763454,45.195114,0.009618513
3.838384,3.4343433,-0.002596233,-0.009402767,-71.33737,-47.715073,44.279137,0.009754612
3.838384,3.4747474,-0.0029853918,-0.009441599,-72.2573,-45.45672,43.202953,0.009902341
3.838384,3.5151515,-0.0033932514,-0.009473724,-72.952705,-42.94325,41.942993,0.010063082
3.838384,3.5555556,-0.0038204864,-0.009498671,-73.372475,-40.12752,40.472065,0.010238206
3.838384,3.5959597,-0.0042681433,-0.009516055,-73.456505,-36.95935,38.75967,0.010429398
3.838384,3.6363637,-0.0047373846,-0.009525342,-73.134514,-33.381214,36.770245,0.010638372
3.838384,3.6767676,-0.005229689,-0.009525847,-72.32637,-29.33255,34.46304,0.010866987
3.838384,3.7171717,-0.0057466775,-0.00951696,-70.94308,-24.750418,31.79273,0.011117411
3.838384,3.7575758,-0.006290447,-0.009497914,-68.880104,-19.565905,28.707203,0.011392107
3.838384,3.7979798,-0.0068636164,-0.009467844,-66.01905,-13.702522,25.146624,0.011693985
3.838384,3.838384,-0.0074687824,-0.009426035,-62.228424,-7.0841064,21.045647,0.01202634
3.838384,3.878788,-0.008109607,-0.009371566,-57.35744,0.3744756,16.329227,0.012393223
3.838384,3.9191918,-0.008789975,-0.009303374,-51.233967,8.767323,10.913367,0.0127990795
3.838384,3.959596,-0.00951463,-0.009220585,-43.668076,18.192251,4.7038493,0.013249429
3.838384,4.0,-0.010288995,-0.009122102,-34.44298,28.758974,-2.403414,0.013750496
3.8888888,0.04040404,0.00056668743,0.0004909765,1.6440691,-7.5389853,5.160689,0.000749795
3.8888888,0.08080808,0.00060223415,0.00046877004,1.2692862,-9.359407,5.8862925,0.0007631719
3.8888888,0.121212125,0.0006422773,0.00044243224,0.9512221,-11.131311,6.5834317,0.0007799144
3.8888888,0.16161616,0.00068626925,0.00041219592,0.6875163,-12.8558035,7.2520776,0.00080054416
3.8888888,0.2020202,0.0007340275,0.00037797727,0.4765419,-14.534268,7.8919315,0.00082562893
3.8888888,0.24242425,0.000785131,0.00033997,0.3159316,-16.167923,8.503719,0.000855576
3.8888888,0.28282827,0.00083937496,0.00029804744,0.20303279,-17.759115,9.087637,0.0008907203
3.8888888,0.32323232,0.00089618936,0.00025250763,0.13499027,-19.309208,9.644829,0.000931083
3.8888888,0.36363637,0.0009553805,0.00020313263,0.10846102,-20.821507,10.176484,0.0009767368
3.8888888,0.4040404,0.0010166056,0.00015014037,0.11966544,-22.297968,10.684147,0.0010276329
3.8888888,0.44444445,0.0010793917,9.359792e-05,0.16506153,-23.741936,11.169653,0.0010834421
3.8888888,0.4848485,0.0011436157,3.3507124e-05,0.23965241,-25.156832,11.634998,0.0011441065
3.8888888,0.5252525,0.0012087189,-3.019534e-05,0.33942005,-26.545628,12.082549,0.0012090959
3.8888888,0.56565654,0.0012746863,-9.7369775e-05,0.45949352,-27.912106,12.514728,0.0012783998
3.8888888,0.6060606,0.0013409667,-0.00016803108,0.5942487,-29.260565,12.934139,0.0013514534
3.8888888,0.64646465,0.0014074184,-0.00024206564,0.73917073,-30.594027,13.343668,0.0014280834
3.8888888,0.68686867,0.0014736988,-0.0003195498,0.8878403,-31.917315,13.746139,0.0015079457
3.8888888,0.72727275,0.0015397854,-0.0004004035,1.0356889,-33.234093,14.144731,0.0015909941
3.8888888,0.7676768,0.0016050749,-0.00048458204,1.1756274,-34.548405,14.542222,0.0016766291
3.8888888,0.8080808,0.0016696751,-0.00057223253,1.3032936,-35.86373,14.941833,0.0017650113
3.8888888,0.8484849,0.0017332472,-0.0006631594,1.4121021,-37.184193,15.346511,0.0018557819
3.8888888,0.8888889,0.0017956346,-0.0007574726,1.4965088,-38.51321,15.759332,0.0019488634
3.8888888,0.9292929,0.0018566921,-0.0008550864,1.550793,-39.85371,16.183088,0.0020441327
3.8888888,0.969697,0.0019162111,-0.00095615536,1.5697297,-41.208862,16.6206,0.0021415176
3.8888888,1.010101,0.001974117,-0.001060443,1.5473963,-42.580906,17.074554,0.00224091
3.8888888,1.050505,0.0020303316,-0.0011680983,1.4798726,-43.971184,17.547403,0.0023423706
3.8888888,1.0909091,0.0020847209,-0.0012791231,1.3614615,-45.381874,18.041323,0.0024458573
3.8888888,1.1313131,0.0021371655,-0.0013934933,1.1875253,-46.813778,18.558277,0.002551333
3.8888888,1.1717172,0.002187539,-0.0015111137,0.9549056,-48.266277,19.100084,0.00265872
3.8888888,1.2121212,0.0022359006,-0.001632046,0.6595442,-49.73911,19.66828,0.002768181
3.8888888,1.2525252,0.0022821464,-0.0017563123,0.2980831,-51.23131,20.26417,0.0028797265
3.8888888,1.2929293,0.00232625,-0.00188387,-0.13193437,-52.740505,20.888243,0.0029933937
3.8888888,1.3333334,0.0023680627,-0.0020145774,-0.6325012,-54.263943,21.541563,0.0031090581
3.8888888,1.3737373,0.0024077706,-0.002148509,-1.2053167,-55.798,22.223967,0.0032269878
3.8888888,1.4141414,0.0024451092,-0.0022855606,-1.8513327,-57.33808,22.935555,0.0033469906
3.8888888,1.4545455,0.0024801455,-0.002425734,-2.5712495,-58.879295,23.675718,0.003469194
3.8888888,1.4949495,0.002512835,-0.0025688019,-3.3645582,-60.415897,24.443695,0.0035934777
3.8888888,1.5353535,0.0025430769,-0.0027147476,-4.230388,-61.94025,25.238237,0.0037198246
3.8888888,1.5757576,0.0025709309,-0.0028635375,-5.16745,-63.44571,26.058102,0.0038483154
3.8888888,1.6161616,0.0025963187,-0.0030149054,-6.1741595,-64.92468,26.90124,0.0039787595
3.8888888,1.6565657,0.0026191026,-0.0031687487,-7.2472596,-66.36779,27.765533,0.0041110422
3.8888888,1.6969697,0.0026392676,-0.0033250004,-8.384248,-67.76695,28.648575,0.0042451574
3.8888888,1.7373737,0.0026566721,-0.003483329,-9.581354,-69.11234,29.547455,0.004380809
3.8888888,1.7777778,0.0026713721,-0.0036435612,-10.834062,-70.39419,30.459648,0.0045179385
3.8888888,1.8181819,0.0026831143,-0.003805546,-12.138663,-71.60425,31.38109,0.0046563162
3.8888888,1.8585858,0.0026917793,-0.003969012,-13.490471,-72.731804,32.309113,0.0047956994
3.8888888,1.8989899,0.002697181,-0.0041336976,-14.883493,-73.767876,33.23962,0.004935812
3.8888888,1.939394,0.0026992,-0.004299285,-16.31316,-74.703445,34.16914,0.0050763697
3.8888888,1.979798,0.0026976243,-0.0044655744,-17.774054,-75.53023,35.093746,0.005217138
3.8888888,2.020202,0.0026922897,-0.0046321675,-19.260479,-76.23939,36.00922,0.005357742
3.8888888,2.060606,0.0026828833,-0.0047987793,-20.766573,-76.82493,36.912342,0.005497831
3.8888888,2.10101,0.0026691444,-0.004965052,-22.287584,-77.27982,37.798462,0.005637027
3.8888888,2.1414142,0.0026508383,-0.005130684,-23.81771,-77.59849,38.664124,0.0057750205
3.8888888,2.1818182,0.0026276447,-0.0052953027,-25.352722,-77.778175,39.50556,0.0059114085
3.8888888,2.2222223,0.0025991686,-0.0054585505,-26.886919,-77.814606,40.319294,0.0060457797
3.8888888,2.2626262,0.0025651455,-0.0056200977,-28.417162,-77.70772,41.101532,0.0061778207
3.8888888,2.3030303,0.0025252365,-0.005779717,-29.939547,-77.45793,41.849358,0.006307293
3.8888888,2.3434343,0.0024788529,-0.005936835,-31.449877,-77.064735,42.559856,0.006433562
3.8888888,2.3838384,0.002425734,-0.0060913395,-32.947063,-76.533325,43.23013,0.0065565696
3.8888888,2.4242425,0.0023655482,-0.006242683,-34.428593,-75.86827,43.857807,0.0066758455
3.8888888,2.4646466,0.0022977106,-0.006390786,-35.893597,-75.07536,44.441185,0.00679129
3.8888888,2.5050504,0.0022218674,-0.0065352507,-37.340183,-74.161446,44.97822,0.006902622
3.8888888,2.5454545,0.0021373816,-0.00667583,-38.769897,-73.13657,45.467052,0.0070096436
3.8888888,2.5858586,0.0020439401,-0.006812213,-40.18322,-72.011086,45.907284,0.0071122386
3.8888888,2.6262627,0.0019411184,-0.0069443416,-41.5815,-70.79553,46.297314,0.0072105355
3.8888888,2.6666667,0.0018283501,-0.007071873,-42.966072,-69.50152,46.636932,0.0073043997
3.8888888,2.7070708,0.0017051846,-0.007194748,-44.339867,-68.14243,46.925888,0.0073940554
3.8888888,2.7474747,0.0015712865,-0.0073128026,-45.70603,-66.73092,47.16366,0.0074797072
3.8888888,2.7878788,0.0014258735,-0.0074257627,-47.066315,-65.27848,47.34961,0.0075614196
3.8888888,2.8282828,0.0012689456,-0.0075338557,-48.42486,-63.798927,47.484417,0.0076399744
3.8888888,2.868687,0.0010997169,-0.007636845,-49.783596,-62.30196,47.567722,0.007715619
3.8888888,2.909091,0.0009180084,-0.0077346805,-51.1464,-60.800488,47.59886,0.007788968
3.8888888,2.9494948,0.0007232204,-0.007827427,-52.513313,-59.29988,47.577038,0.007860768
3.8888888,2.989899,0.0005150549,-0.007915074,-53.886345,-57.808975,47.501522,0.0079318145
3.8888888,3.030303,0.00029322132,-0.007997625,-55.26492,-56.33131,47.370747,0.008002998
3.8888888,3.070707,5.7332218e-05,-0.008075148,-56.648716,-54.869633,47.182667,0.008075352
3.8888888,3.1111112,-0.00019295141,-0.008147627,-58.032417,-53.42038,46.934074,0.008149912
3.8888888,3.1515152,-0.0004579574,-0.008215088,-59.412045,-51.97939,46.62096,0.008227843
3.8888888,3.191919,-0.00073799863,-0.008277614,-60.778862,-50.53838,46.23807,0.0083104465
3.8888888,3.2323232,-0.0010332912,-0.008335168,-62.12332,-49.08505,45.779366,0.008398971
3.8888888,3.2727273,-0.0013443194,-0.008387722,-63.43002,-47.60003,45.23668,0.008494767
3.8888888,3.3131313,-0.0016711988,-0.0084352195,-64.682205,-46.06402,44.600216,0.008599176
3.8888888,3.3535354,-0.0020144843,-0.008477617,-65.85697,-44.4492,43.858105,0.008713675
3.8888888,3.3939395,-0.0023743361,-0.008514723,-66.928894,-42.726536,42.99639,0.008839568
3.8888888,3.4343433,-0.0027513728,-0.008546429,-67.86611,-40.85947,41.99973,0.008978391
3.8888888,3.4747474,-0.0031460784,-0.008572321,-68.63078,-38.808205,40.84755,0.009131402
3.8888888,3.5151515,-0.0035588816,-0.0085923,-69.18026,-36.528538,39.51874,0.009300175
3.8888888,3.5555556,-0.0039907135,-0.008605959,-69.462616,-33.970413,37.987656,0.009486217
3.8888888,3.5959597,-0.00444242,-0.008612784,-69.42043,-31.081299,36.224762,0.009690982
3.8888888,3.6363637,-0.004914928,-0.008612324,-68.986855,-27.802498,34.196728,0.00991608
3.8888888,3.6767676,-0.005409699,-0.008603914,-68.0833,-24.070269,31.86532,0.0101632755
3.8888888,3.7171717,-0.005928155,-0.008587044,-66.62465,-19.819609,29.186981,0.010434574
3.8888888,3.7575758,-0.006472118,-0.008560846,-64.50954,-14.976669,26.113144,0.010732027
3.8888888,3.7979798,-0.0070438534,-0.008524638,-61.62672,-9.4657345,22.588692,0.011058269
3.8888888,3.838384,-0.0076460205,-0.008477485,-57.848057,-3.2055573,18.55086,0.011416188
3.8888888,3.878788,-0.008281518,-0.008418461,-53.02982,3.891614,13.930207,0.011809066
3.8888888,3.9191918,-0.008954104,-0.008346599,-47.009567,11.92002,8.648738,0.012240984
3.8888888,3.959596,-0.009667896,-0.008260913,-39.605022,20.978874,2.6180122,0.01271656
3.8888888,4.0,-0.010427933,-0.00816023,-30.612757,31.175531,-4.257545,0.013241267
3.939394,0.04040404,0.0005816147,0.0004933439,1.7446884,-7.269029,5.0387373,0.0007626689
3.939394,0.08080808,0.00061829016,0.00047176518,1.3594075,-9.024823,5.7809973,0.00077771785
3.939394,0.121212125,0.0006595664,0.00044629164,1.0289335,-10.730478,6.494785,0.0007963693
3.939394,0.16161616,0.0007050149,0.00041694567,0.7510849,-12.38742,7.179832,0.00081907853
3.939394,0.2020202,0.00075427815,0.00038397685,0.5241745,-13.996557,7.8360076,0.00084638863
3.939394,0.24242425,0.00080702826,0.00034729205,0.34660813,-15.559017,8.463362,0.00087858207
3.939394,0.28282827,0.0008628182,0.00030698255,0.2152245,-17.076754,9.062719,0.00091580214
3.939394,0.32323232,0.00092145056,0.00026313774,0.12783158,-18.551811,9.634754,0.0009582863
3.939394,0.36363637,0.0009824522,0.0002158247,0.08153634,-19.986044,10.18068,0.001005879
3.939394,0.4040404,0.0010455213,0.00016501732,0.07201602,-21.382732,10.70176,0.0010584638
3.939394,0.44444445,0.0011102818,0.00011082739,0.09618704,-22.744303,11.200026,0.0011157994
3.939394,0.4848485,0.0011764839,5.3374097e-05,0.14995497,-24.073849,11.677348,0.001177694
3.939394,0.5252525,0.0012436807,-7.489696e-06,0.228788,-25.375088,12.13593,0.0012437033
3.939394,0.56565654,0.0013116486,-7.1555376e-05,0.32749534,-26.651352,12.578002,0.0013135991
3.939394,0.6060606,0.0013801008,-0.00013878196,0.4420866,-27.906319,13.006336,0.0013870612
3.939394,0.64646465,0.0014486499,-0.00020924956,0.56684804,-29.144125,13.423748,0.0014636844
3.939394,0.68686867,0.0015171133,-0.00028288178,0.696064,-30.368917,13.832948,0.0015432611
3.939394,0.72727275,0.0015851222,-0.0003595855,0.82474095,-31.584278,14.236794,0.0016253965
3.939394,0.7676768,0.0016526319,-0.00043945573,0.94757146,-32.794415,14.6385565,0.0017100625
3.939394,0.8080808,0.0017191656,-0.00052235834,1.0581144,-34.003265,15.041222,0.0017967717
3.939394,0.8484849,0.0017846785,-0.00060832687,1.1514186,-35.214653,15.447567,0.0018855076
3.939394,0.8888889,0.0018490143,-0.0006973706,1.2215499,-36.431747,15.860737,0.0019761526
3.939394,0.9292929,0.0019119382,-0.0007895231,1.2629994,-37.658314,16.283813,0.0020685392
3.939394,0.969697,0.0019731484,-0.0008846447,1.2701472,-38.897152,16.719076,0.0021623855
3.939394,1.010101,0.0020327605,-0.0009828713,1.2382095,-40.150826,17.169842,0.0022579087
3.939394,1.050505,0.0020904392,-0.00108408,1.1616038,-41.421585,17.637873,0.0023548175
3.939394,1.0909091,0.0021462254,-0.0011883583,1.0361322,-42.71086,18.126022,0.002453259
3.939394,1.1313131,0.0021998696,-0.0012956746,0.85688674,-44.01968,18.636015,0.0025530763
3.939394,1.1717172,0.002251424,-0.0014059506,0.620375,-45.34827,19.169823,0.0026543562
3.939394,1.2121212,0.0023007467,-0.0015193075,0.32217604,-46.697002,19.728874,0.0027571237
3.939394,1.2525252,0.002347771,-0.0016355477,-0.039696503,-48.06374,20.314686,0.0028613014
3.939394,1.2929293,0.0023923703,-0.0017547812,-0.46901047,-49.44752,20.92777,0.0029669332
3.939394,1.3333334,0.002434697,-0.0018769447,-0.9672451,-50.84588,21.56919,0.0030741943
3.939394,1.3737373,0.0024745055,-0.0020019598,-1.5364355,-52.25484,22.238848,0.0031829262
3.939394,1.4141414,0.0025117658,-0.002129903,-2.1774259,-53.670994,22.936779,0.003293244
3.939394,1.4545455,0.002546627,-0.0022605415,-2.89065,-55.089146,23.662968,0.0034051957
3.939394,1.4949495,0.0025787689,-0.002393905,-3.6759346,-56.503605,24.416101,0.0035186405
3.939394,1.5353535,0.0026083887,-0.0025297645,-4.5326953,-57.90784,25.195461,0.0036336484
3.939394,1.5757576,0.002635207,-0.0026681758,-5.459866,-59.295376,25.99915,0.0037501305
3.939394,1.6161616,0.002659414,-0.0028089564,-6.4544463,-60.657475,26.825996,0.0038681673
3.939394,1.6565657,0.0026807487,-0.0029518828,-7.514724,-61.98645,27.673525,0.0039874837
3.939394,1.6969697,0.0026992522,-0.0030969959,-8.637773,-63.274124,28.539137,0.0041082045
3.939394,1.7373737,0.002714742,-0.0032438915,-9.819403,-64.51004,29.42052,0.004229971
3.939394,1.7777778,0.0027271882,-0.0033924822,-11.056244,-65.68613,30.314472,0.004352757
3.939394,1.8181819,0.0027365051,-0.0035426002,-12.343281,-66.79281,31.217686,0.0044764355
3.939394,1.8585858,0.00274235,-0.0036939476,-13.676003,-67.81939,32.126587,0.004600623
3.939394,1.8989899,0.0027448833,-0.003846299,-15.049053,-68.7575,33.037807,0.0047252937
3.939394,1.939394,0.002743706,-0.0039992984,-16.457273,-69.597404,33.94742,0.0048499806
3.939394,1.979798,0.002738718,-0.004152851,-17.895033,-70.3313,34.851425,0.0049746106
3.939394,2.020202,0.0027297102,-0.0043064766,-19.356337,-70.950165,35.746017,0.0050987313
3.939394,2.060606,0.002716478,-0.004459882,-20.835272,-71.44598,36.627254,0.0052220495
3.939394,2.10101,0.0026986785,-0.0046127867,-22.327475,-71.81414,37.490543,0.005344218
3.939394,2.1414142,0.0026760846,-0.0047648996,-23.826523,-72.04795,38.33254,0.005464952
3.939394,2.1818182,0.0026483685,-0.0049157776,-25.327173,-72.14276,39.14871,0.005583791
3.939394,2.2222223,0.0026152954,-0.0050652865,-26.824732,-72.09636,39.936047,0.005700605
3.939394,2.2626262,0.002576422,-0.0052128024,-28.314856,-71.90659,40.69011,0.005814745
3.939394,2.3030303,0.0025314689,-0.005358102,-29.792961,-71.5728,41.4083,0.0059260097
3.939394,2.3434343,0.0024800338,-0.0055009425,-31.256199,-71.09769,42.087032,0.0060341475
3.939394,2.3838384,0.0024216734,-0.0056408867,-32.701168,-70.482895,42.723415,0.0061387382
3.939394,2.4242425,0.0023560375,-0.0057776496,-34.1258,-69.732994,43.31509,0.006239563
3.939394,2.4646466,0.002282761,-0.005910957,-35.528053,-68.85429,43.859657,0.006336435
3.939394,2.5050504,0.002201248,-0.006040534,-36.908405,-67.855705,44.354794,0.0064291167
3.939394,2.5454545,0.002111178,-0.0061659273,-38.26431,-66.74328,44.799423,0.006517341
3.939394,2.5858586,0.0020119734,-0.0062872116,-39.598877,-65.530716,45.191845,0.0066012926
3.939394,2.6262627,0.0019034036,-0.0064039864,-40.911125,-64.227585,45.531456,0.006680867
3.939394,2.6666667,0.0017847791,-0.006516114,-42.203674,-62.846436,45.81711,0.0067561213
3.939394,2.7070708,0.0016556792,-0.0066233575,-43.478264,-61.400066,46.04838,0.006827162
3.939394,2.7474747,0.0015157349,-0.0067256745,-44.738354,-59.90386,46.22508,0.0068943566
3.939394,2.7878788,0.0013645217,-0.006823035,-45.986008,-58.369713,46.347057,0.006958141
3.939394,2.8282828,0.0012015328,-0.006915219,-47.224884,-56.81132,46.41401,0.0070188274
3.939394,2.868687,0.0010262877,-0.0070022736,-48.457397,-55.242496,46.426266,0.007077083
3.939394,2.909091,0.0008385442,-0.007084241,-49.686626,-53.673927,46.383465,0.0071336967
3.939394,2.9494948,0.000637833,-0.007161062,-50.915264,-52.117138,46.285183,0.0071894117
3.939394,2.989899,0.0004237108,-0.007232722,-52.143543,-50.579445,46.13075,0.007245122
3.939394,3.030303,0.00019592792,-0.0072994456,-53.37322,-49.068516,45.918922,0.0073020747
3.939394,3.070707,-4.587695e-05,-0.0073612034,-54.60302,-47.58766,45.647858,0.0073613464
3.939394,3.1111112,-0.0003020987,-0.007418044,-55.831013,-46.13772,45.315342,0.007424193
3.939394,3.1515152,-0.0005729534,-0.007470127,-57.051266,-44.715008,44.91751,0.0074920678
3.939394,3.191919,-0.00085873157,-0.0075174235,-58.25781,-43.313038,44.450184,0.007566312
3.939394,3.2323232,-0.001159884,-0.00756005,-59.44113,-41.92157,43.907677,0.007648509
3.939394,3.2727273,-0.0014764592,-0.0075980667,-60.58801,-40.524673,43.28246,0.0077401903
3.939394,3.3131313,-0.0018089302,-0.007631425,-61.68305,-39.103413,42.56599,0.007842887
3.939394,3.3535354,-0.0021575019,-0.0076601394,-62.70439,-37.63141,41.747173,0.007958175
3.939394,3.3939395,-0.0025226325,-0.007684171,-63.62854,-36.081238,40.813442,0.008087655
3.939394,3.4343433,-0.0029046573,-0.0077032633,-64.42395,-34.415424,39.748844,0.008232697
3.939394,3.4747474,-0.0033039637,-0.007717479,-65.056046,-32.596,38.53638,0.008394978
3.939394,3.5151515,-0.0037211627,-0.007726306,-65.48335,-30.577887,37.154785,0.008575713
3.939394,3.5555556,-0.004156884,-0.0077296197,-65.656075,-28.309763,35.579815,0.008776486
3.939394,3.5959597,-0.0046118237,-0.0077270176,-65.51827,-25.73795,33.784367,0.008998651
3.939394,3.6363637,-0.0050870813,-0.0077180173,-65.00599,-22.802662,31.735624,0.009243711
3.939394,3.6767676,-0.00558364,-0.0077020153,-64.04492,-19.438292,29.399338,0.0095130475
3.939394,3.7171717,-0.0061028525,-0.0076785125,-62.552086,-15.577271,26.7338,0.009808382
3.939394,3.7575758,-0.006646432,-0.0076467246,-60.430294,-11.143362,23.692427,0.010131508
3.939394,3.7979798,-0.007216368,-0.0076059103,-57.572834,-6.058544,20.223965,0.010484552
3.939394,3.838384,-0.007814907,-0.007555153,-53.857754,-0.2381085,16.269876,0.010869825
3.939394,3.878788,-0.008444823,-0.007493619,-49.14767,6.4075217,11.764851,0.011290234
3.939394,3.9191918,-0.009109441,-0.0074201226,-43.288124,13.973228,6.6355877,0.011749049
3.939394,3.959596,-0.009812463,-0.0073337406,-36.10632,22.56079,0.80055773,0.012250232
3.939394,4.0,-0.010558475,-0.0072332732,-27.406992,32.278996,-5.831311,0.012798501
3.989899,0.04040404,0.00059641525,0.00049323216,1.8319659,-7.000032,4.899942,0.00077394384
3.989899,0.08080808,0.0006342493,0.0004722774,1.435871,-8.690319,5.6575594,0.0007907706
3.989899,0.121212125,0.0006767325,0.0004476197,1.0920976,-10.329307,6.386752,0.00081137556
3.989899,0.16161616,0.0007233694,0.00041937828,0.79971486,-11.91741,7.086864,0.0008361468
3.989899,0.2020202,0.0007739812,0.00038757734,0.5569029,-13.45599,7.757777,0.00086559984
3.989899,0.24242425,0.0008281432,0.00035227463,0.36179447,-14.946202,8.399682,0.0008999548
3.989899,0.28282827,0.00088544935,0.00031357072,0.21241291,-16.389444,9.012924,0.00093933335
3.989899,0.32323232,0.00094566867,0.00027151406,0.10582572,-17.787819,9.598425,0.0009838745
3.989899,0.36363637,0.0010083057,0.0002261512,0.039587364,-19.143232,10.15709,0.0010333561
3.989899,0.4040404,0.0010730885,0.00017759576,0.009922447,-20.458323,10.690368,0.0010876852
3.989899,0.44444445,0.0011396892,0.00012585707,0.013644939,-21.735811,11.199843,0.0011466175
3.989899,0.4848485,0.0012077205,7.1011484e-05,0.046825822,-22.97889,11.687509,0.0012098063
3.989899,0.5252525,0.001276765,1.3107434e-05,0.10477966,-24.190752,12.155391,0.0012768323
3.989899,0.56565654,0.0013466105,-4.7769397e-05,0.1838948,-25.374615,12.605823,0.0013474575
3.989899,0.6060606,0.0014169589,-0.000111658126,0.27822897,-26.53495,13.041363,0.0014213516
3.989899,0.64646465,0.0014874004,-0.00017842464,0.38366348,-27.674896,13.464896,0.0014980638
3.989899,0.68686867,0.0015578084,-0.00024803355,0.49510652,-28.79865,13.87894,0.0015774308
3.989899,0.72727275,0.001627747,-0.00032069348,0.6064018,-29.910894,14.286479,0.0016590372
3.989899,0.7676768,0.0016970597,-0.0003960114,0.7126683,-31.014565,14.690508,0.0017426522
3.989899,0.8080808,0.0017654784,-0.0004742071,0.80843556,-32.11432,15.094136,0.0018280554
3.989899,0.8484849,0.0018327907,-0.0005551111,0.8879612,-33.21371,15.50013,0.0019150118
3.989899,0.8888889,0.0018987693,-0.00063886866,0.9457194,-34.316658,15.911616,0.0020033666
3.989899,0.9292929,0.0019633025,-0.0007253643,0.9764128,-35.4265,16.331543,0.0020930148
3.989899,0.969697,0.0020261444,-0.0008145962,0.9742737,-36.54657,16.762568,0.0021837647
3.989899,1.010101,0.0020871535,-0.0009065736,0.9341171,-37.67934,17.20737,0.0022755407
3.989899,1.050505,0.0021462925,-0.0010012798,0.8518361,-38.827106,17.668674,0.0023683608
3.989899,1.0909091,0.0022032,-0.0010986738,0.72171,-39.991898,18.14834,0.0024619452
3.989899,1.1313131,0.0022579394,-0.0011988375,0.53988385,-41.17468,18.64898,0.0025564628
3.989899,1.1717172,0.002310399,-0.0013017263,0.30213973,-42.376568,19.172098,0.0026518737
3.989899,1.2121212,0.0023605041,-0.001407221,0.004981792,-43.59719,19.719393,0.0027481357
3.989899,1.2525252,0.0024081469,-0.0015153904,-0.35456523,-44.835682,20.292166,0.0028452731
3.989899,1.2929293,0.0024531893,-0.0016262773,-0.77960765,-46.091156,20.891499,0.0029432832
3.989899,1.3333334,0.002495762,-0.0017397031,-1.2722678,-47.360992,21.518026,0.003042268
3.989899,1.3737373,0.0025355965,-0.0018557217,-1.8342347,-48.642265,22.172005,0.0031421254
3.989899,1.4141414,0.0025727414,-0.0019743517,-2.4660375,-49.931274,22.85357,0.003243002
3.989899,1.4545455,0.0026070848,-0.0020953491,-3.1686716,-51.223434,23.562325,0.003344754
3.989899,1.4949495,0.002638694,-0.0022187568,-3.9423406,-52.513348,24.297531,0.003447548
3.989899,1.5353535,0.0026674196,-0.0023444071,-4.7854133,-53.79491,25.058395,0.0035512494
3.989899,1.5757576,0.0026932433,-0.002472369,-5.6976323,-55.0616,25.843224,0.003655977
3.989899,1.6161616,0.0027161427,-0.0026023872,-6.676186,-56.305676,26.650366,0.0037616286
3.989899,1.6565657,0.0027358755,-0.002734296,-7.71918,-57.519115,27.477882,0.0038679955
3.989899,1.6969697,0.0027525164,-0.0028680991,-8.823315,-58.693657,28.32324,0.003975216
3.989899,1.7373737,0.0027659535,-0.0030034706,-9.98553,-59.820633,29.18407,0.0040830546
3.989899,1.7777778,0.0027761124,-0.0031402744,-11.201305,-60.89038,30.056738,0.0041914345
3.989899,1.8181819,0.002782926,-0.003278369,-12.466017,-61.893616,30.93862,0.0043002767
3.989899,1.8585858,0.0027860738,-0.003417462,-13.77511,-62.82067,31.826027,0.004409224
3.989899,1.8989899,0.0027855746,-0.0035573319,-15.123429,-63.66244,32.715218,0.0045181895
3.989899,1.939394,0.0027811714,-0.003697686,-16.50512,-64.40937,33.60243,0.0046268557
3.989899,1.979798,0.0027727224,-0.0038383398,-17.915134,-65.053474,34.483826,0.004735065
3.989899,2.020202,0.002760008,-0.0039789155,-19.347296,-65.58591,35.355064,0.004842459
3.989899,2.060606,0.0027429275,-0.0041190498,-20.795343,-65.99847,36.21226,0.0049487595
3.989899,2.10101,0.002721008,-0.0042586457,-22.25452,-66.28592,37.051178,0.005053706
3.989899,2.1414142,0.0026941262,-0.0043971557,-23.718166,-66.44119,37.867783,0.0051568686
3.989899,2.1818182,0.002661951,-0.0045344178,-25.181606,-66.46047,38.657883,0.0052580344
3.989899,2.2222223,0.0026242323,-0.0046699625,-26.639221,-66.33978,39.417538,0.005356785
3.989899,2.2626262,0.002580639,-0.0048035216,-28.085556,-66.076126,40.143425,0.005452845
3.989899,2.3030303,0.0025307015,-0.004934745,-29.51759,-65.67142,40.831505,0.0055458234
3.989899,2.3434343,0.0024741702,-0.0050633624,-30.93098,-65.12527,41.47872,0.0056355265
3.989899,2.3838384,0.0024106689,-0.0051889587,-32.322624,-64.440544,42.082027,0.0057215923
3.989899,2.4242425,0.0023396797,-0.0053112227,-33.68863,-63.619934,42.638218,0.005803722
3.989899,2.4646466,0.002260957,-0.005429996,-35.02914,-62.672092,43.14559,0.005881903
3.989899,2.5050504,0.0021739528,-0.0055447966,-36.3411,-61.60178,43.601185,0.00595574
3.989899,2.5454545,0.0020783953,-0.005655499,-37.625034,-60.420303,44.003773,0.006025313
3.989899,2.5858586,0.0019736253,-0.00576186,-38.880714,-59.136906,44.35166,0.006090503
3.989899,2.6262627,0.0018592961,-0.0058636796,-40.10936,-57.76296,44.64338,0.0061514
3.989899,2.6666667,0.0017350204,-0.005960766,-41.31157,-56.311817,44.87876,0.0062081423
3.989899,2.7070708,0.0016002357,-0.006052913,-42.490402,-54.797104,45.056705,0.0062608714
3.989899,2.7474747,0.001454629,-0.0061400607,-43.64767,-53.23289,45.177208,0.006310015
3.989899,2.7878788,0.0012976564,-0.006222168,-44.78614,-51.633545,45.239803,0.0063560433
3.989899,2.8282828,0.0011289455,-0.0062991194,-45.90941,-50.013664,45.244774,0.006399486
3.989899,2.868687,0.0009480715,-0.006370863,-47.021133,-48.388336,45.192234,0.00644102
3.989899,2.909091,0.0007545911,-0.006437538,-48.123505,-46.770184,45.0817,0.006481613
3.989899,2.9494948,0.00054823235,-0.0064991023,-49.21876,-45.17057,44.91352,0.0065221842
3.989899,2.989899,0.00032858923,-0.0065555573,-50.309353,-43.600487,44.68677,0.0065637873
3.989899,3.030303,9.523705e-05,-0.006607119,-51.397083,-42.069004,44.401604,0.0066078054
3.989899,3.070707,-0.00015212223,-0.006653877,-52.480934,-40.581635,44.055294,0.0066556158
3.989899,3.1111112,-0.00041374564,-0.006695863,-53.5603,-39.141037,43.64716,0.0067086336
3.989899,3.1515152,-0.0006899573,-0.0067332424,-54.630325,-37.746204,43.173553,0.0067685
3.989899,3.191919,-0.0009810813,-0.0067661274,-55.68585,-36.392933,42.630955,0.0068368856
3.989899,3.2323232,-0.001287289,-0.0067946576,-56.719063,-35.0733,42.014114,0.006915525
3.989899,3.2727273,-0.0016089566,-0.00681898,-57.71866,-33.77438,41.31695,0.007006228
3.989899,3.3131313,-0.0019463152,-0.0068390146,-58.667767,-32.476204,40.531048,0.0071105743
3.989899,3.3535354,-0.0022997148,-0.0068549253,-59.54972,-31.158249,39.646866,0.0072304006
3.989899,3.3939395,-0.0026693195,-0.00686663,-60.340645,-29.791079,38.652554,0.007367216
3.989899,3.4343433,-0.0030556507,-0.006874146,-61.01233,-28.341347,37.53387,0.0075226915
3.989899,3.4747474,-0.003458906,-0.006877389,-61.53051,-26.769667,36.27409,0.0076982146
3.989899,3.5151515,-0.0038797855,-0.006876068,-61.856052,-25.032188,34.85374,0.007895128
3.989899,3.5555556,-0.0043185763,-0.006870024,-61.942726,-23.07865,33.250698,0.008114637
3.989899,3.5959597,-0.004776269,-0.0068589523,-61.73645,-20.853321,31.438292,0.008358109
3.989899,3.6363637,-0.005253438,-0.0068423897,-61.175137,-18.29484,29.386631,0.008626523
3.989899,3.6767676,-0.0057510473,-0.0068199374,-60.189144,-15.339462,27.062904,0.008921104
3.989899,3.7171717,-0.0062705018,-0.006790951,-58.696453,-11.913479,24.427471,0.009243171
3.989899,3.7575758,-0.0068132244,-0.0067547914,-56.606686,-7.9423494,21.437136,0.009594125
3.989899,3.7979798,-0.007380862,-0.006710682,-53.81723,-3.344737,18.043615,0.009975489
3.989899,3.838384,-0.0079753995,-0.0066578165,-50.21019,1.9670708,14.191813,0.010389105
3.989899,3.878788,-0.008599576,-0.0065951943,-45.655056,8.084519,9.8194,0.010837402
3.989899,3.9191918,-0.009256028,-0.0065218583,-40.005936,15.103676,4.8593225,0.011322928
3.989899,3.959596,-0.009948399,-0.0064367466,-33.097534,23.128443,-0.7655042,0.01184915
3.989899,4.0,-0.010680769,-0.006338559,-24.745874,32.26772,-7.1404357,0.01241999
4.040404,0.04040404,0.00061117485,0.0004905965,1.9052306,-6.7329264,4.7438927,0.0007837216
4.040404,0.08080808,0.0006499216,0.00047035143,1.4972417,-8.357219,5.515738,0.0008022646
4.040404,0.121212125,0.00069338083,0.00044652075,1.140385,-9.928388,6.2589116,0.00082471676
4.040404,0.16161616,0.00074119866,0.00041932985,0.83328235,-11.447116,6.9727883,0.0008515944
4.040404,0.2020202,0.0007929988,0.00038873404,0.57420105,-12.91453,7.65722,0.00088315416
4.040404,0.24242425,0.0008484386,0.00035479479,0.3620371,-14.331395,8.312112,0.0009196344
4.040404,0.28282827,0.0009071231,0.00031772815,0.1945174,-15.6991,8.938045,0.0009611574
4.040404,0.32323232,0.0009687729,0.0002774559,0.06882077,-17.019987,9.535509,0.0010077215
4.040404,0.36363637,0.0010329336,0.00023413077,-0.017056804,-18.29544,10.10552,0.0010591359
4.040404,0.4040404,0.001099281,0.00018782355,-0.06617372,-19.527765,10.649431,0.0011152114
4.040404,0.44444445,0.0011674725,0.00013858452,-0.08245059,-20.720015,11.168671,0.001175669
4.040404,0.4848485,0.0012371205,8.6475164e-05,-0.06926152,-21.87501,11.665201,0.0012401391
4.040404,0.5252525,0.0013078675,3.1471252e-05,-0.030808361,-22.996351,12.140849,0.001308246
4.040404,0.56565654,0.0013794452,-2.6186928e-05,0.028952153,-24.086668,12.598084,0.0013796937
4.040404,0.6060606,0.0014514811,-8.661859e-05,0.104925744,-25.150509,13.03922,0.0014540633
4.040404,0.64646465,0.0015236624,-0.00014967099,0.19250168,-26.19094,13.466979,0.0015309958
4.040404,0.68686867,0.0015957393,-0.00021537207,0.28695425,-27.212309,13.8841305,0.0016102077
4.040404,0.72727275,0.0016673617,-0.00028362498,0.38247472,-28.218737,14.293477,0.0016913125
4.040404,0.7676768,0.0017383918,-0.00035454892,0.4742542,-29.21448,14.697986,0.0017741789
4.040404,0.8080808,0.0018084571,-0.0004279092,0.55663425,-30.203207,15.100583,0.0018583926
4.040404,0.8484849,0.00187736,-0.0005037077,0.62437624,-31.188494,15.504301,0.0019437599
4.040404,0.8888889,0.0019449033,-0.00058214366,0.6714522,-32.175514,15.912011,0.0020301575
4.040404,0.9292929,0.0020109005,-0.0006629303,0.6934295,-33.166256,16.326677,0.0021173563
4.040404,0.969697,0.0020751022,-0.00074616075,0.68442804,-34.16486,16.751076,0.0022051767
4.040404,1.010101,0.002137415,-0.000831848,0.63929474,-35.174202,17.188,0.0022935811
4.040404,1.050505,0.0021976307,-0.0009199381,0.5532123,-36.196552,17.639723,0.0023824077
4.040404,1.0909091,0.0022556782,-0.0010104384,0.4218085,-37.234043,18.1089,0.0024716533
4.040404,1.1313131,0.0023113452,-0.001103336,0.24017039,-38.28818,18.597427,0.0025611846
4.040404,1.1717172,0.0023645498,-0.0011986438,0.0043387096,-39.360493,19.107443,0.0026510078
4.040404,1.2121212,0.0024152435,-0.0012963247,-0.2887005,-40.450428,19.640259,0.002741142
4.040404,1.2525252,0.0024633035,-0.0013963208,-0.64286274,-41.558132,20.197365,0.0028315324
4.040404,1.2929293,0.002508685,-0.0014986638,-1.0603074,-42.682076,20.78008,0.002922241
4.040404,1.3333334,0.0025512874,-0.0016032811,-1.5432826,-43.820732,21.388994,0.003013234
4.040404,1.3737373,0.0025909804,-0.0017102677,-2.0939026,-44.97152,22.02439,0.0031045442
4.040404,1.4141414,0.0026278384,-0.0018194132,-2.713102,-46.130733,22.686535,0.0031962164
4.040404,1.4545455,0.0026617162,-0.0019306932,-3.4013264,-47.29424,23.375257,0.0032882076
4.040404,1.4949495,0.0026925914,-0.0020441469,-4.1584854,-48.457306,24.089598,0.003380619
4.040404,1.5353535,0.0027203448,-0.0021595024,-4.984541,-49.614136,24.828934,0.0034732877
4.040404,1.5757576,0.002744969,-0.0022768043,-5.877081,-50.757797,25.591772,0.0035663275
4.040404,1.6161616,0.0027663186,-0.0023958944,-6.835655,-51.881996,26.376371,0.0036596213
4.040404,1.6565657,0.002784472,-0.0025166888,-7.856886,-52.978523,27.181128,0.003753266
4.040404,1.6969697,0.002799321,-0.0026390478,-8.938047,-54.039513,28.003319,0.0038471771
4.040404,1.7373737,0.0028106906,-0.0027628317,-10.075608,-55.05583,28.84033,0.0039412207
4.040404,1.7777778,0.0028185584,-0.002887724,-11.265766,-56.019302,29.689344,0.0040352475
4.040404,1.8181819,0.0028226115,-0.003013717,-12.503709,-56.91919,30.547098,0.004129119
4.040404,1.8585858,0.0028230585,-0.0031404756,-13.784938,-57.748077,31.410217,0.0042228242
4.040404,1.8989899,0.00281946,-0.0032677501,-15.104037,-58.494946,32.274975,0.004315964
4.040404,1.939394,0.0028117858,-0.0033953898,-16.455145,-59.151165,33.13766,0.004408493
4.040404,1.979798,0.00279985,-0.0035231095,-17.83314,-59.708595,33.993958,0.0045001623
4.040404,2.020202,0.0027834326,-0.0036505684,-19.231604,-60.15815,34.839886,0.0045906585
4.040404,2.060606,0.0027624182,-0.003777504,-20.64522,-60.49232,35.67141,0.004679796
4.040404,2.10101,0.002736438,-0.0039035901,-22.067379,-60.704308,36.48426,0.004767191
4.040404,2.1414142,0.0027053356,-0.0040286183,-23.492317,-60.787582,37.2744,0.0048526907
4.040404,2.1818182,0.00266869,-0.0041521583,-24.91504,-60.737965,38.03722,0.0049358206
4.040404,2.2222223,0.0026264265,-0.0042738914,-26.329681,-60.5515,38.76931,0.0050163995
4.040404,2.2626262,0.0025779903,-0.0043935757,-27.730936,-60.225407,39.46624,0.0050940695
4.040404,2.3030303,0.0025231875,-0.0045107882,-29.11462,-59.759014,40.124516,0.0051685283
4.040404,2.3434343,0.0024616532,-0.004625261,-30.476433,-59.153275,40.7406,0.0052395393
4.040404,2.3838384,0.0023930557,-0.0047367103,-31.813063,-58.410683,41.311623,0.0053068954
4.040404,2.4242425,0.0023169033,-0.004844617,-33.12081,-57.533676,41.83419,0.0053701354
4.040404,2.4646466,0.0022328086,-0.0049489383,-34.398254,-56.528954,42.30549,0.0054293117
4.040404,2.5050504,0.0021405257,-0.0050494447,-35.643585,-55.404137,42.723747,0.005484409
4.040404,2.5454545,0.0020394921,-0.0051456783,-36.855644,-54.167397,43.086857,0.0055351183
4.040404,2.5858586,0.0019292347,-0.0052374583,-38.03468,-52.82885,43.3929,0.0055814795
4.040404,2.6262627,0.0018094778,-0.00532466,-39.181,-51.40135,43.64089,0.0056237187
4.040404,2.6666667,0.0016796105,-0.0054070726,-40.296192,-49.897,43.82965,0.0056619365
4.040404,2.7070708,0.0015394427,-0.005484605,-41.381737,-48.329834,43.958736,0.0056965584
4.040404,2.7474747,0.0013882853,-0.0055570602,-42.440025,-46.714764,44.027832,0.005727849
4.040404,2.7878788,0.0012258664,-0.005624421,-43.474262,-45.06683,44.03679,0.0057564625
4.040404,2.8282828,0.00105175,-0.0056866147,-44.48762,-43.402287,43.985348,0.0057830582
4.040404,2.868687,0.0008655228,-0.00574369,-45.482903,-41.73499,43.873806,0.005808537
4.040404,2.909091,0.0006666891,-0.0057956427,-46.463818,-40.08176,43.702374,0.005833862
4.040404,2.9494948,0.00045504048,-0.005842589,-47.432842,-38.453537,43.471382,0.005860282
4.040404,2.989899,0.00023017451,-0.0058846064,-48.39298,-36.864635,43.18,0.005889106
4.040404,3.030303,-8.3372e-06,-0.0059217196,-49.34557,-35.324005,42.828323,0.005921725
4.040404,3.070707,-0.00026071817,-0.0059541203,-50.291203,-33.84038,42.415314,0.0059598256
4.040404,3.1111112,-0.0005272515,-0.005981965,-51.229992,-32.41869,41.93946,0.006005156
4.040404,3.1515152,-0.0008084439,-0.006005455,-52.158497,-31.060259,41.398563,0.006059626
4.040404,3.191919,-0.0011042394,-0.0060247276,-53.072872,-29.763996,40.78949,0.006125087
4.040404,3.2323232,-0.0014151111,-0.006039936,-53.96533,-28.522844,40.107975,0.0062034964
4.040404,3.2727273,-0.0017413348,-0.0060512386,-54.826412,-27.32646,39.348206,0.0062968037
4.040404,3.3131313,-0.0020830147,-0.006058708,-55.64302,-26.158913,38.50321,0.006406785
4.040404,3.3535354,-0.0024404638,-0.006062614,-56.397842,-25.001019,37.56437,0.006535377
4.040404,3.3939395,-0.0028140657,-0.0060628504,-57.06922,-23.824286,36.52046,0.0066840947
4.040404,3.4343433,-0.0032039993,-0.0060595106,-57.631138,-22.598024,35.359093,0.006854435
4.040404,3.4747474,-0.0036106445,-0.00605247,-58.05215,-21.28455,34.064407,0.0070476336
4.040404,3.5151515,-0.0040343814,-0.006041836,-58.2943,-19.839703,32.61843,0.0072649857
4.040404,3.5555556,-0.00447578,-0.0060272925,-58.314644,-18.215487,31.000244,0.007507387
4.040404,3.5959597,-0.004935313,-0.0060085002,-58.061756,-16.354887,29.185293,0.0077755633
4.040404,3.6363637,-0.0054138266,-0.0059853084,-57.475212,-14.197194,27.145277,0.0080705285
4.040404,3.6767676,-0.0059121065,-0.0059572067,-56.49089,-11.678945,24.849045,0.008392932
4.040404,3.7171717,-0.006431151,-0.005923733,-55.028503,-8.723484,22.259949,0.008743587
4.040404,3.7575758,-0.006972391,-0.005884167,-53.003067,-5.255974,19.33691,0.009123467
4.040404,3.7979798,-0.007537365,-0.0058378,-50.314865,-1.1927892,16.034082,0.009533718
4.040404,3.838384,-0.00812776,-0.0057839397,-46.852818,3.5557418,12.299863,0.009975692
4.040404,3.878788,-0.008745845,-0.005721649,-42.494183,9.079619,8.077146,0.010451176
4.040404,3.9191918,-0.00939424,-0.0056498144,-37.096516,15.482354,3.3003423,0.010962306
4.040404,3.959596,-0.010076102,-0.0055674296,-30.505772,22.864994,-2.1008918,0.011511912
4.040404,4.0,-0.010794915,-0.005473202,-22.545835,31.341032,-8.206882,0.012103146
4.090909,0.04040404,0.00062581524,0.00048553944,1.9636533,-6.4688816,4.5705857,0.0007920816
4.090909,0.08080808,0.0006653741,0.00046595372,1.544251,-8.026174,5.355326,0.00081230263
4.090909,0.121212125,0.0007097423,0.00044300407,1.173738,-9.529062,6.111177,0.0008366521
4.090909,0.16161616,0.0007584952,0.00041679107,0.85179496,-10.977947,6.837563,0.00086546503
4.090909,0.2020202,0.0008113533,0.0003874153,0.5765728,-12.373571,7.5340915,0.00089910225
4.090909,0.24242425,0.00086796284,0.00035496242,0.347331,-13.7163,8.200813,0.0009377408
4.090909,0.28282827,0.0009278953,0.00031948462,0.16164295,-15.008263,8.837825,0.0009813563
4.090909,0.32323232,0.0009907223,0.00028103776,0.017523583,-16.250633,9.445994,0.0010298121
4.090909,0.36363637,0.00105628,0.00023979694,-0.08725272,-17.444963,10.026012,0.0010831574
4.090909,0.4040404,0.0011239275,0.00019572489,-0.15586445,-18.594044,10.578997,0.0011408424
4.090909,0.44444445,0.0011935979,0.00014902465,-0.1909242,-19.70005,11.106529,0.001202865
4.090909,0.4848485,0.0012647547,9.960495e-05,-0.1968597,-20.766207,11.610255,0.0012686708
4.090909,0.5252525,0.0013369061,4.762225e-05,-0.17719279,-21.795675,12.092235,0.001337754
4.090909,0.56565654,0.0014100857,-6.8638474e-06,-0.13543019,-22.791204,12.554625,0.0014101024
4.090909,0.6060606,0.0014836602,-6.379746e-05,-0.076622546,-23.757078,12.999813,0.0014850312
4.090909,0.64646465,0.0015573837,-0.00012315623,-0.005496426,-24.697176,13.430181,0.0015622455
4.090909,0.68686867,0.0016309731,-0.00018484332,0.073355086,-25.614777,13.848693,0.001641414
4.090909,0.72727275,0.0017041601,-0.00024891458,0.15497872,-26.514622,14.258045,0.0017222428
4.090909,0.7676768,0.0017766245,-0.0003151931,0.23351793,-27.400515,14.661066,0.0018043673
4.090909,0.8080808,0.001848165,-0.00038368814,0.30483463,-28.276226,15.060824,0.0018875726
4.090909,0.8484849,0.0019185133,-0.00045440346,0.3626298,-29.146446,15.460179,0.0019715922
4.090909,0.8888889,0.0019874088,-0.00052729994,0.40188134,-30.01468,15.862105,0.002056171
4.090909,0.9292929,0.002054613,-0.00060234405,0.41726327,-30.884796,16.26948,0.002141087
4.090909,0.969697,0.002120044,-0.00067952834,0.40380222,-31.759922,16.685236,0.0022262852
4.090909,1.010101,0.0021834709,-0.0007589087,0.35590348,-32.643845,17.111917,0.0023115985
4.090909,1.050505,0.0022447295,-0.0008403305,0.26924682,-33.538517,17.552032,0.002396866
4.090909,1.0909091,0.0023035482,-0.00092389435,0.13899486,-34.446987,18.008196,0.0024819176
4.090909,1.1313131,0.0023599602,-0.0010095108,-0.039395954,-35.370415,18.482327,0.002566812
4.090909,1.1717172,0.0024138875,-0.0010972321,-0.26969513,-36.310482,18.976498,0.0026515601
4.090909,1.2121212,0.0024649873,-0.001186898,-0.5557511,-37.267307,19.492378,0.0027358525
4.090909,1.2525252,0.0025133677,-0.001278786,-0.9002671,-38.241512,20.03143,0.0028199842
4.090909,1.2929293,0.0025588386,-0.0013725683,-1.3066753,-39.23186,20.5949,0.0029037215
4.090909,1.3333334,0.0026013441,-0.0014683064,-1.7768425,-40.236965,21.183456,0.002987125
4.090909,1.3737373,0.002640877,-0.0015660524,-2.3122165,-41.254066,21.797674,0.0030703014
4.090909,1.4141414,0.002677247,-0.0016657375,-2.914649,-42.281315,22.437624,0.0031531465
4.090909,1.4545455,0.0027105287,-0.0017671939,-3.5844457,-43.314205,23.103283,0.0032357285
4.090909,1.4949495,0.0027405396,-0.0018704906,-4.321437,-44.347782,23.794144,0.0033180253
4.090909,1.5353535,0.002767209,-0.0019755512,-5.125846,-45.37796,24.509092,0.0034000364
4.090909,1.5757576,0.0027905442,-0.0020821057,-5.9953055,-46.396847,25.247093,0.0034817094
4.090909,1.6161616,0.002810482,-0.00219029,-6.928882,-47.399223,26.00665,0.0035631699
4.090909,1.6565657,0.0028269105,-0.0022998843,-7.924161,-48.377842,26.785488,0.0036442957
4.090909,1.6969697,0.0028397553,-0.0024108402,-8.978054,-49.323997,27.581654,0.0037250987
4.090909,1.7373737,0.0028489754,-0.002522828,-10.0868225,-50.22919,28.392645,0.0038054332
4.090909,1.7777778,0.002854336,-0.0026357938,-11.247058,-51.085293,29.215202,0.0038851826
4.090909,1.8181819,0.0028558634,-0.0027495157,-12.453951,-51.882877,30.046549,0.0039643147
4.090909,1.8585858,0.002853386,-0.0028638951,-13.702794,-52.61306,30.88291,0.0040427353
4.090909,1.8989899,0.0028466918,-0.0029785875,-14.988642,-53.26703,31.720798,0.00412015
4.090909,1.939394,0.0028358102,-0.003093468,-16.305246,-53.834583,32.556587,0.00419659
4.090909,1.979798,0.0028203726,-0.0032081902,-17.647625,-54.30785,33.38613,0.004271649
4.090909,2.020202,0.0028002746,-0.0033225305,-19.008904,-54.677765,34.205048,0.004345198
4.090909,2.060606,0.002775345,-0.0034362152,-20.383818,-54.93752,35.00956,0.0044170255
4.090909,2.10101,0.0027453266,-0.003548909,-21.766,-55.078613,35.79513,0.0044868225
4.090909,2.1414142,0.002709899,-0.0036603753,-23.14977,-55.096535,36.557606,0.0045543276
4.090909,2.1818182,0.0026689172,-0.0037703086,-24.528973,-54.984676,37.292572,0.0046193446
4.090909,2.2222223,0.002622012,-0.0038783047,-25.898201,-54.73994,37.996246,0.0046814736
4.090909,2.2626262,0.0025689863,-0.003984088,-27.252007,-54.35916,38.664474,0.0047405325
4.090909,2.3030303,0.0025093742,-0.0040873904,-28.585754,-53.841194,39.293022,0.004796219
4.090909,2.3434343,0.0024428852,-0.0041879043,-29.894762,-53.186073,39.87894,0.0048483224
4.090909,2.3838384,0.0023692064,-0.0042851977,-31.175602,-52.39626,40.41836,0.0048965355
4.090909,2.4242425,0.00228801,-0.004379159,-32.425213,-51.47546,40.908413,0.0049408525
4.090909,2.4646466,0.0021987706,-0.00446932,-33.63976,-50.427658,41.346203,0.004980905
4.090909,2.5050504,0.0021012165,-0.0045556016,-34.819046,-49.261444,41.72933,0.0050168335
4.090909,2.5454545,0.0019949563,-0.004637653,-35.96077,-47.983955,42.055744,0.005048532
4.090909,2.5858586,0.0018794276,-0.0047152042,-37.06495,-46.606236,42.32335,0.0050759627
4.090909,2.6262627,0.0017543882,-0.004788216,-38.131996,-45.139893,42.531094,0.005099499
4.090909,2.6666667,0.0016192608,-0.0048563443,-39.16291,-43.597736,42.677612,0.005119188
4.090909,2.7070708,0.0014737174,-0.004919583,-40.158463,-41.993816,42.76236,0.005135576
4.090909,2.7474747,0.0013174452,-0.0049778502,-41.12269,-40.3442,42.78519,0.0051492383
4.090909,2.7878788,0.0011497699,-0.005030982,-42.057148,-38.663624,42.7455,0.005160693
4.090909,2.8282828,0.0009704903,-0.00507902,-42.965347,-36.96903,42.643433,0.0051709083
4.090909,2.868687,0.0007791333,-0.0051219463,-43.850254,-35.275692,42.47953,0.005180867
4.090909,2.909091,0.0005754195,-0.005159851,-44.716103,-33.600582,42.253838,0.005191837
4.090909,2.9494948,0.00035877153,-0.005192749,-45.56593,-31.958063,41.966553,0.0052051283
4.090909,2.989899,0.00012901798,-0.005220784,-46.401665,-30.360153,41.617905,0.005222378
4.090909,3.030303,-0.000114198774,-0.0052441247,-47.227215,-28.822721,41.207603,0.005245368
4.090909,3.070707,-0.00037126988,-0.005262917,-48.043106,-27.353071,40.73558,0.005275996
4.090909,3.1111112,-0.0006423034,-0.005277343,-48.849762,-25.958893,40.200565,0.005316287
4.090909,3.1515152,-0.0009277463,-0.0052876566,-49.645195,-24.644594,39.600983,0.0053684283
4.090909,3.191919,-0.0012279637,-0.005293969,-50.427086,-23.410742,38.933735,0.0054345196
4.090909,3.2323232,-0.0015429147,-0.005296495,-51.18857,-22.252789,38.19647,0.0055166516
4.090909,3.2727273,-0.0018730126,-0.005295545,-51.922268,-21.163738,37.383778,0.0056170253
4.090909,3.3131313,-0.0022184998,-0.0052912124,-52.61536,-20.13002,36.489063,0.0057374793
4.090909,3.3535354,-0.0025795363,-0.0052837487,-53.25344,-19.133547,35.50512,0.0058797966
4.090909,3.3939395,-0.0029563867,-0.0052732136,-53.81712,-18.150047,34.422363,0.006045412
4.090909,3.4343433,-0.0033493228,-0.005259678,-54.28215,-17.150427,33.2284,0.006235557
4.090909,3.4747474,-0.0037586205,-0.005243251,-54.61903,-16.098127,31.90967,0.006451272
4.090909,3.5151515,-0.004184816,-0.0052238163,-54.79342,-14.952113,30.449127,0.0066933506
4.090909,3.5555556,-0.0046280324,-0.005201349,-54.7633,-13.66442,28.827719,0.0069622346
4.090909,3.5959597,-0.0050889887,-0.0051756445,-54.481155,-12.179616,27.022242,0.00725845
4.090909,3.6363637,-0.0055682994,-0.0051465295,-53.891132,-10.438792,25.006556,0.007582396
4.090909,3.6767676,-0.0060665794,-0.0051134415,-52.92835,-8.373399,22.750872,0.007934146
4.090909,3.7171717,-0.00658476,-0.0050761923,-51.521248,-5.91335,20.221407,0.008314252
4.090909,3.7575758,-0.0071241744,-0.005034007,-49.585167,-2.9783325,17.379227,0.00872325
4.090909,3.7979798,-0.007686015,-0.004986372,-47.02735,0.5142395,14.181138,0.0091618085
4.090909,3.838384,-0.00827188,-0.004932424,-43.742325,4.654853,10.57901,0.009630826
4.090909,3.878788,-0.0088838525,-0.004871335,-39.609432,9.539648,6.5180154,0.010131769
4.090909,3.9191918,-0.009524163,-0.0048021004,-34.498604,15.267106,1.9376059,0.010666295
4.090909,3.959596,-0.010195509,-0.004723616,-28.260084,21.944668,-3.228451,0.011236589
4.090909,4.0,-0.010901257,-0.0046347454,-20.728569,29.68361,-9.055142,0.011845602
4.141414,0.04040404,0.00064022467,0.00047797523,2.0075035,-6.2079954,4.379597,0.0007989668
4.141414,0.08080808,0.0006804317,0.000459034,1.5758624,-7.698658,5.1758494,0.00082079205
4.141414,0.121212125,0.00072563067,0.00043693,1.1918817,-9.1330185,5.9432473,0.0008470228
4.141414,0.16161616,0.00077527016,0.0004118029,0.8551187,-10.511479,6.6808124,0.0008778527
4.141414,0.2020202,0.00082901865,0.00038364902,0.56401753,-11.834712,7.388251,0.00091348705
4.141414,0.24242425,0.0008866377,0.000352595,0.3181236,-13.103091,8.065347,0.00095417484
4.141414,0.28282827,0.0009475015,0.000318788,0.11456611,-14.318541,8.712263,0.0009996924
4.141414,0.32323232,0.0010115616,0.0002821684,-0.047374878,-15.481889,9.329653,0.001050179
4.141414,0.36363637,0.001078222,0.00024300069,-0.17072502,-16.595081,9.918206,0.0011052655
4.141414,0.4040404,0.001147151,0.00020128302,-0.2574295,-17.659788,10.479016,0.001164676
4.141414,0.44444445,0.0012180246,0.00015701912,-0.31124616,-18.679302,11.013414,0.0012281039
4.141414,0.4848485,0.0012904517,0.00011033937,-0.33482864,-19.655693,11.522987,0.0012951604
4.141414,0.5252525,0.001363989,6.134808e-05,-0.33244774,-20.592447,12.009667,0.0013653679
4.141414,0.56565654,0.0014384463,1.0123476e-05,-0.3078519,-21.492846,12.475681,0.001438482
4.141414,0.6060606,0.001513347,-4.3308362e-05,-0.2653035,-22.360224,12.923188,0.0015139666
4.141414,0.64646465,0.0015884936,-9.893626e-05,-0.2089364,-23.198391,13.354674,0.0015915716
4.141414,0.68686867,0.0016634911,-0.0001566112,-0.14362572,-24.011244,13.772836,0.001670847
4.141414,0.72727275,0.0017380305,-0.0002162978,-0.07456653,-24.803165,14.180461,0.0017514379
4.141414,0.7676768,0.0018117838,-0.0002780147,-0.0064140363,-25.578005,14.580385,0.0018329901
4.141414,0.8080808,0.0018845983,-0.0003416594,0.05518338,-26.340029,14.975414,0.0019153177
4.141414,0.8484849,0.0019561797,-0.00040728413,0.105297655,-27.093615,15.368648,0.001998129
4.141414,0.8888889,0.002026178,-0.00047468022,0.13896295,-27.841694,15.7627945,0.002081038
4.141414,0.9292929,0.0020945705,-0.00054405443,0.15048975,-28.589928,16.160868,0.0021640752
4.141414,0.969697,0.0021610074,-0.0006151721,0.13477536,-29.340197,16.565802,0.002246862
4.141414,1.010101,0.0022253282,-0.0006881319,0.087217465,-30.096792,16.980127,0.002329294
4.141414,1.050505,0.0022873543,-0.0007628761,0.0027637444,-30.862133,17.406462,0.0024112174
4.141414,1.0909091,0.0023469813,-0.00083946064,-0.12347188,-31.639486,17.847122,0.0024925922
4.141414,1.1313131,0.0024040006,-0.000917742,-0.29559472,-32.43025,18.304747,0.0025732217
4.141414,1.1717172,0.002458308,-0.0009978041,-0.5169562,-33.2359,18.780962,0.0026530907
4.141414,1.2121212,0.0025097542,-0.001079591,-0.79256165,-34.057896,19.277378,0.0027321023
4.141414,1.2525252,0.002558291,-0.0011631101,-1.124394,-34.89632,19.795975,0.0028102805
4.141414,1.2929293,0.002603706,-0.0012482628,-1.5161824,-35.75078,20.33746,0.0028874634
4.141414,1.3333334,0.0026460476,-0.0013351627,-1.9694853,-36.61993,20.903141,0.0029638198
4.141414,1.3737373,0.0026851632,-0.0014236886,-2.4863677,-37.502224,21.493567,0.0030392418
4.141414,1.4141414,0.0027210452,-0.0015137475,-3.0684364,-38.395157,22.108692,0.0031137627
4.141414,1.4545455,0.0027535409,-0.0016054325,-3.71546,-39.294785,22.748867,0.0031873814
4.141414,1.4949495,0.002782572,-0.0016986188,-4.428917,-40.197983,23.41338,0.0032600635
4.141414,1.5353535,0.0028081276,-0.0017931331,-5.206975,-41.098354,24.10152,0.0033318023
4.141414,1.5757576,0.0028300993,-0.0018891208,-6.049368,-41.991737,24.811867,0.0034026813
4.141414,1.6161616,0.00284845,-0.0019863006,-6.954158,-42.87124,25.543486,0.0034726153
4.141414,1.6565657,0.0028631128,-0.00208465,-7.9190593,-43.72956,26.29437,0.0035416353
4.141414,1.6969697,0.002873931,-0.0021839887,-8.9411955,-44.559517,27.061981,0.0036096103
4.141414,1.7373737,0.0028808676,-0.0022842735,-10.017594,-45.35323,27.844152,0.0036765884
4.141414,1.7777778,0.0028837733,-0.0023852475,-11.143565,-46.101696,28.637913,0.0037423996
4.141414,1.8181819,0.0028826557,-0.0024867374,-12.31522,-46.796463,29.440334,0.0038070418
4.141414,1.8585858,0.0028772168,-0.0025886726,-13.528206,-47.429253,30.247778,0.003870349
4.141414,1.8989899,0.002867572,-0.0026908647,-14.77667,-47.99039,31.057138,0.003932394
4.141414,1.939394,0.002853293,-0.0027927924,-16.055054,-48.47056,31.864006,0.0039926143
4.141414,1.979798,0.0028344244,-0.002894543,-17.357746,-48.861767,32.66491,0.0040512145
4.141414,2.020202,0.002810657,-0.0029958263,-18.67899,-49.15548,33.45524,0.004107891
4.141414,2.060606,0.002781935,-0.0030962657,-20.012465,-49.34404,34.231354,0.004162454
4.141414,2.10101,0.0027478226,-0.0031955764,-21.351728,-49.419384,34.98852,0.004214527
4.141414,2.1414142,0.0027081743,-0.0032936037,-22.69139,-49.3761,35.72248,0.0042640395
4.141414,2.1818182,0.0026629232,-0.0033898968,-24.02499,-49.20852,36.42929,0.0043107495
4.141414,2.2222223,0.0026115328,-0.0034842025,-25.347046,-48.912342,37.10426,0.004354282
4.141414,2.2626262,0.002553925,-0.0035763178,-26.65161,-48.484436,37.74361,0.004394608
4.141414,2.3030303,0.0024895258,-0.0036658254,-27.934032,-47.923157,38.343174,0.004431254
4.141414,2.3434343,0.0024182536,-0.003752416,-29.189844,-47.228848,38.899437,0.0044641434
4.141414,2.3838384,0.0023397245,-0.0038358849,-30.414728,-46.402428,39.4089,0.004493142
4.141414,2.4242425,0.002253428,-0.0039158612,-31.604841,-45.447468,39.867905,0.004517954
4.141414,2.4646466,0.0021592937,-0.0039922167,-32.75824,-44.369003,40.27413,0.00453876
4.141414,2.5050504,0.0020567179,-0.004064517,-33.87217,-43.173313,40.62471,0.0045552594
4.141414,2.5454545,0.001945287,-0.0041326247,-34.945187,-41.868984,40.91695,0.004567574
4.141414,2.5858586,0.0018247031,-0.0041963365,-35.976917,-40.465508,41.149593,0.0045758914
4.141414,2.6262627,0.001694493,-0.004255414,-36.967453,-38.97494,41.32068,0.004580377
4.141414,2.6666667,0.0015542731,-0.004309645,-37.917126,-37.409515,41.429226,0.004581354
4.141414,2.7070708,0.0014038011,-0.004359005,-38.82761,-35.78433,41.47481,0.004579474
4.141414,2.7474747,0.0012424402,-0.0044034906,-39.701496,-34.114563,41.456116,0.0045754113
4.141414,2.7878788,0.0010698251,-0.0044428445,-40.540955,-32.415573,41.37332,0.004569835
4.141414,2.8282828,0.0008857213,-0.0044772457,-41.349678,-30.705502,41.226818,0.0045640147
4.141414,2.868687,0.0006896071,-0.0045065414,-42.131077,-29.000519,41.016586,0.004558999
4.141414,2.909091,0.00048111007,-0.004530892,-42.887863,-27.316807,40.74306,0.0045563634
4.141414,2.9494948,0.00025995448,-0.004550388,-43.624714,-25.671339,40.406708,0.004557807
4.141414,2.989899,2.5682151e-05,-0.0045651086,-44.344524,-24.078535,40.007793,0.0045651807
4.141414,3.030303,-0.00022185966,-0.0045752954,-45.05035,-22.55307,39.54686,0.0045806714
4.141414,3.070707,-0.0004831776,-0.0045811087,-45.743706,-21.106342,39.023354,0.004606519
4.141414,3.1111112,-0.0007583611,-0.004582729,-46.426414,-19.747221,38.437164,0.0046450533
4.141414,3.1515152,-0.001047805,-0.0045804493,-47.09788,-18.48322,37.786785,0.004698767
4.141414,3.191919,-0.0013516136,-0.0045745224,-47.755207,-17.315723,37.070812,0.0047700224
4.141414,3.2323232,-0.001670301,-0.0045650713,-48.395016,-16.245075,36.28569,0.0048610475
4.141414,3.2727273,-0.0020038188,-0.0045525543,-49.00941,-15.26461,35.428337,0.0049740365
4.141414,3.3131313,-0.0023524724,-0.004537059,-49.589348,-14.3655405,34.493416,0.0051106783
4.141414,3.3535354,-0.0027164817,-0.0045188293,-50.121,-13.530578,33.473297,0.0052724844
4.141414,3.3939395,-0.0030961074,-0.0044981334,-50.58682,-12.739063,32.360363,0.0054606856
4.141414,3.4343433,-0.0034914725,-0.004475048,-50.965652,-11.964919,31.143574,0.0056759524
4.141414,3.4747474,-0.0039029382,-0.0044497177,-51.23037,-11.173709,29.810465,0.005918861
4.141414,3.5151515,-0.004330825,-0.004422212,-51.34819,-10.325987,28.345438,0.0061896695
4.141414,3.5555556,-0.004775405,-0.004392484,-51.281273,-9.376131,26.730717,0.0064883283
4.141414,3.5959597,-0.0052372143,-0.0043603666,-50.984497,-8.270408,24.944984,0.006814779
4.141414,3.6363637,-0.005716659,-0.0043257717,-50.404785,-6.950391,22.964062,0.007168856
4.141414,3.6767676,-0.0062144585,-0.0042884573,-49.482365,-5.3497343,20.760115,0.007550521
4.141414,3.7171717,-0.006731361,-0.0042479485,-48.14827,-3.3972077,18.301563,0.007959667
4.141414,3.7575758,-0.0072685145,-0.0042037815,-46.32239,-1.0137753,15.551504,0.008396612
4.141414,3.7979798,-0.007826921,-0.0041553825,-43.916973,1.8851155,12.469398,0.008861597
4.141414,3.838384,-0.008408111,-0.004102003,-40.83061,5.389656,9.009768,0.00935536
4.141414,3.878788,-0.0090136975,-0.0040428564,-36.951565,9.595934,5.1218696,0.0098788375
4.141414,3.9191918,-0.009645831,-0.003976984,-32.15309,14.60617,0.7486974,0.010433526
4.141414,3.959596,-0.01030698,-0.003903307,-26.294065,20.527477,-4.1732745,0.011021327
4.141414,4.0,-0.011000048,-0.0038207062,-19.217833,27.473577,-9.714025,0.011644692
4.1919193,0.04040404,0.0006543547,0.00046789087,2.0360732,-5.951771,4.170801,0.0008044265
4.1919193,0.08080808,0.0006952584,0.00044963136,1.5927013,-7.3751545,4.9774356,0.000827981
4.1919193,0.121212125,0.00074096024,0.0004284475,1.1950324,-8.741003,5.754846,0.0008559143
4.1919193,0.16161616,0.00079132244,0.00040430017,0.8433975,-10.049112,6.5023837,0.0008886224
4.1919193,0.2020202,0.0008458756,0.00037739798,0.536807,-11.299739,7.2194233,0.0009262477
4.1919193,0.24242425,0.00090428814,0.0003478527,0.27418745,-12.493753,7.9056826,0.0009688852
4.1919193,0.28282827,0.0009661354,0.00031562522,0.053791434,-13.632371,8.5613,0.0010163842
4.1919193,0.32323232,0.001031097,0.00028089434,-0.12560934,-14.716435,9.186612,0.0010686733
4.1919193,0.36363637,0.0010988526,0.0002438128,-0.26612878,-15.747577,9.78238,0.0011255762
4.1919193,0.4040404,0.0011688061,0.00020427443,-0.37072542,-16.728521,10.349535,0.0011865225
4.1919193,0.44444445,0.0012406819,0.0001625605,-0.441954,-17.660795,10.8893175,0.0012512862
4.1919193,0.4848485,0.0013142303,0.000118691474,-0.4825211,-18.547165,11.403344,0.001319579
4.1919193,0.5252525,0.0013889857,7.266365e-05,-0.49635157,-19.39107,11.893492,0.001390885
4.1919193,0.56565654,0.0014646165,2.4672598e-05,-0.48718047,-20.195393,12.361537,0.0014648243
4.1919193,0.6060606,0.0015407242,-2.5290996e-05,-0.45871276,-20.963585,12.809864,0.0015409318
4.1919193,0.64646465,0.0016170293,-7.710792e-05,-0.41560858,-21.699467,13.24095,0.0016188667
4.1919193,0.68686867,0.0016931556,-0.00013074838,-0.3625962,-22.407171,13.657106,0.0016981964
4.1919193,0.72727275,0.0017688833,-0.00018620118,-0.30383307,-23.090532,14.061381,0.0017786565
4.1919193,0.7676768,0.0018437877,-0.00024331175,-0.24489279,-23.75368,14.456381,0.0018597725
4.1919193,0.8080808,0.0019177087,-0.00030206144,-0.19019045,-24.400955,14.845076,0.001941352
4.1919193,0.8484849,0.0019903183,-0.0003625285,-0.14553231,-25.036741,15.230202,0.0020230655
4.1919193,0.8888889,0.002061393,-0.00042453967,-0.11555591,-25.664804,15.614814,0.0021046556
4.1919193,0.9292929,0.0021306612,-0.00048806146,-0.10535475,-26.288769,16.00172,0.0021858455
4.1919193,0.969697,0.002198007,-0.0005532261,-0.12021281,-26.913525,16.393883,0.0022665597
4.1919193,1.010101,0.0022630133,-0.000619743,-0.1649801,-27.54135,16.793762,0.0023463399
4.1919193,1.050505,0.0023256987,-0.000687832,-0.24462159,-28.176212,17.20428,0.0024252809
4.1919193,1.0909091,0.0023859479,-0.00075737014,-0.36326784,-28.820871,17.627787,0.0025032691
4.1919193,1.1313131,0.0024433695,-0.00082832575,-0.5257864,-29.477118,18.066322,0.002579957
4.1919193,1.1717172,0.0024980083,-0.00090077333,-0.73571855,-30.147297,18.522137,0.0026554544
4.1919193,1.2121212,0.0025495924,-0.00097458437,-0.9971728,-30.832481,18.997122,0.002729512
4.1919193,1.2525252,0.0025981553,-0.0010498278,-1.3130456,-31.533617,19.492598,0.0028022402
4.1919193,1.2929293,0.0026434846,-0.0011264086,-1.6864014,-32.25032,20.010159,0.0028734661
4.1919193,1.3333334,0.0026855245,-0.0012043193,-2.1193604,-32.981953,20.5507,0.0029432
4.1919193,1.3737373,0.002724193,-0.0012836531,-2.614069,-33.727463,21.114729,0.003011477
4.1919193,1.4141414,0.0027593337,-0.001364192,-3.171301,-34.483765,21.702753,0.0030781394
4.1919193,1.4545455,0.0027909726,-0.0014460217,-3.7925987,-35.24908,22.314787,0.0031433273
4.1919193,1.4949495,0.0028189458,-0.0015290491,-4.477875,-36.019108,22.950483,0.003206937
4.1919193,1.5353535,0.0028433092,-0.0016131215,-5.226173,-36.789066,23.609272,0.0032690316
4.1919193,1.5757576,0.0028638467,-0.0016983971,-6.037347,-37.554615,24.289824,0.0033295902
4.1919193,1.6161616,0.0028805286,-0.0017845314,-6.9094563,-38.30926,24.991098,0.0033885096
4.1919193,1.6565657,0.0028932542,-0.0018716324,-7.8400493,-39.046326,25.711039,0.0034458565
4.1919193,1.6969697,0.0029020421,-0.0019594673,-8.8270235,-39.759884,26.447847,0.0035016225
4.1919193,1.7373737,0.0029067434,-0.002047969,-9.866524,-40.440758,27.19908,0.0035557467
4.1919193,1.7777778,0.0029071718,-0.0021369308,-10.954461,-41.081207,27.961725,0.0036080633
4.1919193,1.8181819,0.0029033385,-0.0022262651,-12.087778,-41.673546,28.733158,0.0036586376
4.1919193,1.8585858,0.0028950945,-0.002315769,-13.260654,-42.208584,29.50993,0.0037073384
4.1919193,1.8989899,0.002882313,-0.002405297,-14.468332,-42.677895,30.28854,0.0037540887
4.1919193,1.939394,0.0028647147,-0.0024945624,-15.704935,-43.071793,31.064924,0.0037986094
4.1919193,1.979798,0.0028424412,-0.0025833566,-16.965273,-43.382893,31.835564,0.00384099
4.1919193,2.020202,0.0028150454,-0.002671497,-18.242735,-43.60221,32.59621,0.003880899
4.1919193,2.060606,0.002782371,-0.0027586892,-19.532053,-43.72243,33.342484,0.003918157
4.1919193,2.10101,0.0027443543,-0.0028447341,-20.826183,-43.73579,34.07038,0.0039527197
4.1919193,2.1414142,0.0027006604,-0.0029292386,-22.118975,-43.63569,34.775223,0.0039842194
4.1919193,2.1818182,0.0026510283,-0.003012063,-23.404879,-43.416626,35.45303,0.00401254
4.1919193,2.2222223,0.0025952645,-0.0030928217,-24.677794,-43.074814,36.09945,0.0040374426
4.1919193,2.2626262,0.0025330074,-0.0031712484,-25.932405,-42.60648,36.710045,0.0040586875
4.1919193,2.3030303,0.0024641082,-0.0032471325,-27.163288,-42.010197,37.28116,0.004076236
4.1919193,2.3434343,0.0023882538,-0.0033200774,-28.364521,-41.284103,37.80894,0.0040898253
4.1919193,2.3838384,0.0023047812,-0.0033897795,-29.53357,-40.43048,38.289204,0.0040991
4.1919193,2.4242425,0.0022138022,-0.0034561045,-30.665916,-39.452347,38.71937,0.0041043367
4.1919193,2.4646466,0.0021147504,-0.0035186503,-31.758265,-38.353157,39.09588,0.004105249
4.1919193,2.5050504,0.0020071678,-0.0035773348,-32.80856,-37.140152,39.415993,0.0041019563
4.1919193,2.5454545,0.0018909238,-0.0036318041,-33.814865,-35.820526,39.677708,0.004094581
4.1919193,2.5858586,0.0017654598,-0.0036818627,-34.776936,-34.404453,39.878597,0.0040832534
4.1919193,2.6262627,0.0016303323,-0.0037273448,-35.693615,-32.901966,40.017075,0.004068302
4.1919193,2.6666667,0.0014853962,-0.0037681293,-36.56623,-31.327993,40.091755,0.0040503335
4.1919193,2.7070708,0.0013300143,-0.0038040876,-37.395702,-29.694803,40.10238,0.004029891
4.1919193,2.7474747,0.0011638962,-0.003835082,-38.184204,-28.018896,40.047382,0.004007806
4.1919193,2.7878788,0.0009866394,-0.0038612112,-38.93428,-26.316175,39.92723,0.003985274
4.1919193,2.8282828,0.0007979311,-0.0038822964,-39.64917,-24.603962,39.742165,0.003963448
4.1919193,2.868687,0.00059730187,-0.0038985051,-40.332096,-22.898958,39.49173,0.003943997
4.1919193,2.909091,0.00038443506,-0.003909841,-40.98752,-21.220205,39.177273,0.003928696
4.1919193,2.9494948,0.00015901402,-0.003916459,-41.619038,-19.584005,38.798653,0.0039196857
4.1919193,2.989899,-7.936731e-05,-0.0039184634,-42.229366,-18.006393,38.35681,0.003919267
4.1919193,3.030303,-0.00033088028,-0.0039160475,-42.82282,-16.502617,37.85229,0.003930001
4.1919193,3.070707,-0.0005960353,-0.003909491,-43.40257,-15.087581,37.285004,0.0039546653
4.1919193,3.1111112,-0.0008748211,-0.0038989335,-43.96948,-13.770494,36.655605,0.003995872
4.1919193,3.1515152,-0.001167763,-0.0038846396,-44.524082,-12.561029,35.96273,0.0040563648
4.1919193,3.191919,-0.0014749877,-0.0038670823,-45.066357,-11.4648695,35.2051,0.00413883
4.1919193,3.2323232,-0.0017967261,-0.003846297,-45.59153,-10.481921,34.381153,0.0042452593
4.1919193,3.2727273,-0.0021331348,-0.0038227476,-46.096416,-9.611541,33.48757,0.0043776324
4.1919193,3.3131313,-0.002484575,-0.0037966743,-46.570976,-8.844679,32.520153,0.0045373836
4.1919193,3.3535354,-0.002851054,-0.003768377,-47.004585,-8.168897,31.472612,0.0047253757
4.1919193,3.3939395,-0.0032328255,-0.0037380047,-47.381786,-7.5666337,30.337816,0.0049420483
4.1919193,3.4343433,-0.00363015,-0.0037059356,-47.683918,-7.013225,29.106588,0.0051876726
4.1919193,3.4747474,-0.0040432326,-0.0036723036,-47.88487,-6.4778275,27.76714,0.005462009
4.1919193,3.5151515,-0.004472308,-0.003637189,-47.956326,-5.923589,26.306152,0.005764606
4.1919193,3.5555556,-0.0049176924,-0.003600601,-47.863247,-5.3072224,24.706535,0.006094918
4.1919193,3.5959597,-0.00537974,-0.0035625733,-47.56256,-4.57756,22.949415,0.006452405
4.1919193,3.6363637,-0.0058589466,-0.0035230275,-47.00532,-3.6774023,21.0121,0.006836591
4.1919193,3.6767676,-0.0063557513,-0.003481783,-46.136387,-2.5430477,18.869072,0.007246957
4.1919193,3.7171717,-0.0068710037,-0.0034384541,-44.888103,-1.1015956,16.489643,0.0076833363
4.1919193,3.7575758,-0.007405501,-0.0033926908,-43.186913,0.7234278,13.840225,0.008145661
4.1919193,3.7979798,-0.007960189,-0.0033439826,-40.950237,3.0150034,10.883547,0.008634051
4.1919193,3.838384,-0.008536331,-0.0032916702,-38.081303,5.864372,7.5762196,0.009148992
4.1919193,3.878788,-0.009135533,-0.0032349788,-34.471867,9.370244,3.8690705,0.00969139
4.1919193,3.9191918,-0.009759653,-0.0031729694,-30.00526,13.632665,-0.2898634,0.010262484
4.1919193,3.959596,-0.010410588,-0.003104763,-24.546885,18.76044,-4.9603133,0.010863696
4.1919193,4.0,-0.0110912435,-0.0030289888,-17.94738,24.86855,-10.208116,0.011497411
4.2424245,0.04040404,0.00066826865,0.00045530125,2.0500274,-5.7006116,3.9438512,0.00080862985
4.2424245,0.08080808,0.0007095821,0.00043776445,1.5944773,-7.057079,4.7596993,0.00083375326
4.2424245,0.121212125,0.0007559024,0.00041737035,1.183694,-8.354307,5.54617,0.00086347345
4.2424245,0.16161616,0.00080677494,0.00039436296,0.8175949,-9.591951,6.30233,0.0008980022
4.2424245,0.2020202,0.00086198375,0.00036864914,0.49578825,-10.770299,7.0277,0.0009375064
4.2424245,0.24242425,0.00092108175,0.0003405325,0.21682842,-11.889924,7.721869,0.0009820153
4.2424245,0.28282827,0.0009836741,0.00030999072,-0.019905342,-12.95177,8.384825,0.0010313627
4.2424245,0.32323232,0.0010494329,0.00027709082,-0.21586758,-13.956595,9.016848,0.0010853979
4.2424245,0.36363637,0.001117941,0.00024202093,-0.37369737,-14.906516,9.618488,0.0011438384
4.2424245,0.4040404,0.0011888184,0.0002048593,-0.4948026,-15.802767,10.190793,0.0012063402
4.2424245,0.44444445,0.0012616664,0.00016561896,-0.58201164,-16.647982,10.734697,0.0012724904
4.2424245,0.4848485,0.0013361312,0.00012450479,-0.63847786,-17.444407,11.251784,0.0013419195
4.2424245,0.5252525,0.001411844,8.149259e-05,-0.667325,-18.195192,11.743775,0.001414194
4.2424245,0.56565654,0.0014885031,3.67295e-05,-0.6717595,-18.903152,12.21253,0.0014889562
4.2424245,0.6060606,0.0015655868,-9.745359e-06,-0.6566168,-19.572294,12.6603565,0.001565617
4.2424245,0.64646465,0.0016429387,-5.784817e-05,-0.6252611,-20.205908,13.089362,0.0016439568
4.2424245,0.68686867,0.0017201193,-0.00010743365,-0.5819865,-20.807728,13.502191,0.001723471
4.2424245,0.72727275,0.0017968155,-0.00015859306,-0.5319176,-21.3822,13.901562,0.0018038009
4.2424245,0.7676768,0.0018726215,-0.00021108612,-0.47972542,-21.933115,14.290041,0.0018844809
4.2424245,0.8080808,0.0019475259,-0.0002651401,-0.43029788,-22.46563,14.670566,0.0019654913
4.2424245,0.8484849,0.0020210743,-0.00032035448,-0.38839844,-22.982624,15.046186,0.002046306
4.2424245,0.8888889,0.0020929426,-0.0003769286,-0.35932624,-23.48946,15.419367,0.0021266134
4.2424245,0.9292929,0.0021629669,-0.00043475255,-0.3480874,-23.98932,15.793392,0.0022062266
4.2424245,0.969697,0.0022309609,-0.00049377605,-0.3595806,-24.487045,16.170872,0.002284951
4.2424245,1.010101,0.0022966675,-0.0005539935,-0.39848375,-24.985617,16.55467,0.002362539
4.2424245,1.050505,0.002359856,-0.00061546266,-0.47049224,-25.489302,16.947277,0.0024387937
4.2424245,1.0909091,0.0024204962,-0.000678001,-0.5786124,-25.99981,17.351278,0.0025136601
4.2424245,1.1313131,0.0024782307,-0.00074168295,-0.7285094,-26.520708,17.768925,0.0025868362
4.2424245,1.1717172,0.002532985,-0.0008064583,-0.9237556,-27.054077,18.202446,0.002658268
4.2424245,1.2121212,0.0025846437,-0.0008723829,-1.1676276,-27.601284,18.65364,0.0027278992
4.2424245,1.2525252,0.002633091,-0.00093934126,-1.4641029,-28.163649,19.12408,0.002795627
4.2424245,1.2929293,0.0026781298,-0.001007326,-1.8155493,-28.741037,19.615294,0.0028613082
4.2424245,1.3333334,0.0027197972,-0.0010764673,-2.2250319,-29.334444,20.12822,0.0029250775
4.2424245,1.3737373,0.0027577914,-0.0011464469,-2.6932406,-29.94031,20.663893,0.0029865957
4.2424245,1.4141414,0.002792202,-0.0012175031,-3.22272,-30.559475,21.222471,0.0030460968
4.2424245,1.4545455,0.002822876,-0.0012894943,-3.8140044,-31.188364,21.804155,0.0031034537
4.2424245,1.4949495,0.0028497912,-0.0013623592,-4.467238,-31.82374,22.408768,0.0031586916
4.2424245,1.5353535,0.0028727688,-0.0014360733,-5.1823044,-32.46185,23.035807,0.003211714
4.2424245,1.5757576,0.0028918348,-0.0015106108,-5.9581842,-33.097977,23.684288,0.0032626144
4.2424245,1.6161616,0.0029068068,-0.0015857983,-6.793626,-33.726498,24.352812,0.0033112357
4.2424245,1.6565657,0.002917692,-0.001661608,-7.6866307,-34.341576,25.040026,0.0033576582
4.2424245,1.6969697,0.0029243268,-0.0017380137,-8.633959,-34.93664,25.743767,0.00340182
4.2424245,1.7373737,0.0029266588,-0.0018147193,-9.633646,-35.504253,26.461754,0.0034436227
4.2424245,1.7777778,0.0029246137,-0.0018916856,-10.680116,-36.036057,27.191446,0.003483079
4.2424245,1.8181819,0.0029180981,-0.001968976,-11.771093,-36.525738,27.929836,0.0035202506
4.2424245,1.8585858,0.0029069372,-0.0020460598,-12.900632,-36.962925,28.67394,0.0035548059
4.2424245,1.8989899,0.0028910823,-0.0021229312,-14.064175,-37.34057,29.420029,0.0035868082
4.2424245,1.939394,0.0028702319,-0.0021994598,-15.256135,-37.649357,30.16444,0.003616055
4.2424245,1.979798,0.0028444678,-0.0022753961,-16.470882,-37.88172,30.903488,0.003642585
4.2424245,2.020202,0.00281341,-0.0023504999,-17.70224,-38.02847,31.632952,0.0036660777
4.2424245,2.060606,0.0027770922,-0.0024245866,-18.944561,-38.082695,32.34865,0.0036865785
4.2424245,2.10101,0.0027351603,-0.0024973322,-20.190851,-38.03594,33.04622,0.003703751
4.2424245,2.1414142,0.0026874132,-0.0025685485,-21.435694,-37.88323,33.72158,0.0037174765
4.2424245,2.1818182,0.0026335903,-0.0026379079,-22.67255,-37.618164,34.370293,0.0037275134
4.2424245,2.2222223,0.0025736205,-0.0027052425,-23.89518,-37.2354,34.987926,0.00373388
4.2424245,2.2626262,0.002507005,-0.0027701575,-25.09807,-36.732246,35.570347,0.003736154
4.2424245,2.3030303,0.0024335496,-0.0028325152,-26.276175,-36.10605,36.1135,0.0037343414
4.2424245,2.3434343,0.0023529567,-0.0028918646,-27.42358,-35.356136,36.613327,0.0037281746
4.2424245,2.3838384,0.0022650547,-0.0029480439,-28.537264,-34.4837,37.06645,0.003717719
4.2424245,2.4242425,0.0021693371,-0.0030008778,-29.612099,-33.490913,37.46911,0.0037028762
4.2424245,2.4646466,0.0020654984,-0.0030499548,-30.64511,-32.380844,37.81782,0.0036835456
4.2424245,2.5050504,0.0019533,-0.0030951463,-31.633503,-31.160486,38.110558,0.0036599606
4.2424245,2.5454545,0.0018322133,-0.0031361934,-32.575535,-29.83644,38.343964,0.0036321776
4.2424245,2.5858586,0.0017020851,-0.003172934,-33.470383,-28.418709,38.516483,0.0036006393
4.2424245,2.6262627,0.0015623607,-0.003205184,-34.317062,-26.917994,38.626118,0.0035656942
4.2424245,2.6666667,0.0014126822,-0.0032327306,-35.116188,-25.346441,38.67134,0.0035279198
4.2424245,2.7070708,0.0012528449,-0.0032556392,-35.86886,-23.71827,38.65148,0.0034883819
4.2424245,2.7474747,0.0010821186,-0.003273679,-36.577168,-22.049295,38.565327,0.0034478912
4.2424245,2.7878788,0.00090054795,-0.0032868646,-37.243088,-20.354652,38.413216,0.0034080003
4.2424245,2.8282828,0.00070752576,-0.0032951366,-37.869965,-18.652739,38.195057,0.0033702399
4.2424245,2.868687,0.0005026832,-0.0032987054,-38.46158,-16.961256,37.91101,0.003336787
4.2424245,2.909091,0.00028578565,-0.003297601,-39.021557,-15.2984,37.561687,0.0033099614
4.2424245,2.9494948,5.6471676e-05,-0.0032918006,-39.554245,-13.682479,37.14794,0.003292285
4.2424245,2.989899,-0.00018565357,-0.0032815523,-40.063557,-12.130039,36.670113,0.0032867996
4.2424245,3.030303,-0.00044083223,-0.0032671783,-40.552967,-10.658125,36.12936,0.0032967844
4.2424245,3.070707,-0.0007093623,-0.0032486916,-41.025654,-9.280948,35.52592,0.0033252356
4.2424245,3.1111112,-0.0009914674,-0.0032265447,-41.48469,-8.012412,34.86056,0.0033754404
4.2424245,3.1515152,-0.0012874864,-0.0032009147,-41.931538,-6.8628902,34.132782,0.0034501415
4.2424245,3.191919,-0.0015975907,-0.0031722486,-42.3659,-5.840007,33.341793,0.0035518245
4.2424245,3.2323232,-0.0019220077,-0.0031406786,-42.785843,-4.9470234,32.486645,0.0036821156
4.2424245,3.2727273,-0.002260942,-0.0031066332,-43.188335,-4.185214,31.564205,0.0038422686
4.2424245,3.3131313,-0.0026145391,-0.003070578,-43.56604,-3.5486748,30.572153,0.0040328978
4.2424245,3.3535354,-0.0029830262,-0.0030326545,-43.90999,-3.0285988,29.50473,0.004253873
4.2424245,3.3939395,-0.0033665039,-0.00299328,-44.206314,-2.609329,28.356104,0.0045047835
4.2424245,3.4343433,-0.0037652254,-0.0029526502,-44.438248,-2.26983,27.117666,0.004784879
4.2424245,3.4747474,-0.0041793846,-0.002911102,-44.58391,-1.9819976,25.77972,0.0050933063
4.2424245,3.5151515,-0.004609149,-0.0028687324,-44.617085,-1.7130398,24.329657,0.005428985
4.2424245,3.5555556,-0.0050548054,-0.0028257594,-44.504826,-1.4211187,22.753052,0.0057910252
4.2424245,3.5959597,-0.0055166073,-0.0027822312,-44.20886,-1.058907,21.032005,0.006178492
4.2424245,3.6363637,-0.0059950687,-0.002738066,-43.68241,-0.57083744,19.14481,0.00659074
4.2424245,3.6767676,-0.006490547,-0.0026932117,-42.874634,0.10467137,17.069305,0.0070271324
4.2424245,3.7171717,-0.007003665,-0.0026473925,-41.722553,1.0375962,14.776248,0.007487323
4.2424245,3.7575758,-0.007535044,-0.0026003197,-40.15743,2.303571,12.234775,0.007971107
4.2424245,3.7979798,-0.008085851,-0.0025515556,-38.09846,3.9866273,9.409407,0.008478881
4.2424245,3.838384,-0.008656856,-0.0025004912,-35.45615,6.175626,6.259068,0.009010749
4.2424245,3.878788,-0.009249561,-0.002446521,-32.131275,8.967253,2.7397754,0.009567645
4.2424245,3.9191918,-0.009865601,-0.0023887139,-28.007961,12.464837,-1.1999446,0.010150666
4.2424245,3.959596,-0.01050669,-0.0023262352,-22.961615,16.776146,-5.614484,0.010761129
4.2424245,4.0,-0.011175346,-0.0022578835,-16.851822,22.015585,-10.5666895,0.011401157
4.292929,0.04040404,0.00068191066,0.00044016913,2.049666,-5.4554653,3.6987574,0.00081163476
4.292929,0.08080808,0.00072353333,0.00042333826,1.5820317,-6.7454047,4.522609,0.00083828147
4.292929,0.121212125,0.00077017397,0.000403909,1.1578729,-7.9742336,5.3169575,0.0008696611
4.292929,0.16161616,0.0008214824,0.00038187392,0.77792984,-9.141576,6.080543,0.0009059034
4.292929,0.2020202,0.00087721646,0.00035746023,0.4410095,-10.248045,6.813219,0.0009472521
4.292929,0.24242425,0.0009368658,0.0003307145,0.14684322,-11.293517,7.513945,0.0009935239
4.292929,0.28282827,0.0010000356,0.00030182488,-0.10573463,-12.278701,8.18301,0.0010445906
4.292929,0.32323232,0.0010664649,0.0002708044,-0.31820294,-13.205048,8.820514,0.0011003102
4.292929,0.36363637,0.0011356212,0.0002378039,-0.49149105,-14.073293,9.426898,0.0011602526
4.292929,0.4040404,0.001207199,0.00020292029,-0.6281516,-14.88542,10.002998,0.0012241348
4.292929,0.44444445,0.0012808852,0.00016613677,-0.73056126,-15.64395,10.549723,0.0012916146
4.292929,0.4848485,0.0013562031,0.00012772158,-0.8011333,-16.350273,11.068757,0.001362204
4.292929,0.5252525,0.0014327057,8.7659806e-05,-0.8437312,-17.008533,11.561366,0.001435385
4.292929,0.56565654,0.0015101321,4.616566e-05,-0.86103654,-17.620659,12.029423,0.0015108376
4.292929,0.6060606,0.0015880577,3.144145e-06,-0.8568439,-18.190598,12.475245,0.0015880609
4.292929,0.64646465,0.0016662106,-4.1168183e-05,-0.8354358,-18.721642,12.900829,0.0016667191
4.292929,0.68686867,0.001744289,-8.682534e-05,-0.800439,-19.218014,13.308932,0.0017464486
4.292929,0.72727275,0.0018217228,-0.00013365597,-0.75745404,-19.683687,13.70187,0.0018266193
4.292929,0.7676768,0.001898434,-0.00018169358,-0.70971733,-20.122484,14.082326,0.0019071089
4.292929,0.8080808,0.0019740723,-0.00023081899,-0.66297966,-20.53934,14.453353,0.0019875208
4.292929,0.8484849,0.0020483434,-0.00028097257,-0.6218299,-20.938005,14.8175955,0.0020675242
4.292929,0.8888889,0.0021209307,-0.00033215247,-0.59112483,-21.322987,15.177899,0.002146782
4.292929,0.9292929,0.0021915585,-0.00038426183,-0.5762777,-21.698877,15.537266,0.0022249913
4.292929,0.969697,0.0022601113,-0.00043730624,-0.58143157,-22.06909,15.898513,0.0023020294
4.292929,1.010101,0.0023262464,-0.0004912652,-0.6123214,-22.43796,16.26421,0.002377554
4.292929,1.050505,0.0023898445,-0.0005459916,-0.67303056,-22.808832,16.637306,0.0024514208
4.292929,1.0909091,0.0024507083,-0.00060158037,-0.76835287,-23.185514,17.020159,0.002523464
4.292929,1.1313131,0.0025086105,-0.0006580651,-0.90234077,-23.5702,17.41508,0.0025934873
4.292929,1.1717172,0.0025633983,-0.00071527995,-1.0796754,-23.966097,17.824171,0.0026613222
4.292929,1.2121212,0.0026149936,-0.00077324733,-1.302899,-24.37395,18.249651,0.0027269218
4.292929,1.2525252,0.0026632212,-0.00083204545,-1.5766088,-24.79681,18.693085,0.0027901698
4.292929,1.2929293,0.002707839,-0.00089149177,-1.9030437,-25.234129,19.155937,0.0028508157
4.292929,1.3333334,0.002748903,-0.0009517204,-2.2845967,-25.686472,19.63932,0.0029089928
4.292929,1.3737373,0.0027862974,-0.0010125879,-2.7236793,-26.153175,20.14421,0.0029645888
4.292929,1.4141414,0.0028198846,-0.0010742098,-3.221657,-26.633585,20.671154,0.0030175613
4.292929,1.4545455,0.0028496347,-0.0011364724,-3.7791107,-27.12489,21.220642,0.0030678962
4.292929,1.4949495,0.0028752275,-0.0011991952,-4.3968124,-27.623758,21.792053,0.0031152852
4.292929,1.5353535,0.002896797,-0.0012625717,-5.075096,-28.129005,22.385077,0.003159987
4.292929,1.5757576,0.0029142648,-0.0013264567,-5.8125534,-28.634773,22.9992,0.0032019413
4.292929,1.6161616,0.002927538,-0.0013906918,-6.6075687,-29.135944,23.633158,0.0032410652
4.292929,1.6565657,0.0029364564,-0.0014553927,-7.4586897,-29.627268,24.285404,0.0032773379
4.292929,1.6969697,0.0029410087,-0.0015202723,-8.363622,-30.103062,24.954191,0.003310704
4.292929,1.7373737,0.0029409863,-0.0015853848,-9.318917,-30.556099,25.637005,0.0033410843
4.292929,1.7777778,0.0029364452,-0.0016504452,-10.32086,-30.979168,26.331997,0.0033684832
4.292929,1.8181819,0.0029272102,-0.0017154496,-11.365847,-31.364538,27.0356,0.0033928347
4.292929,1.8585858,0.002913203,-0.0017802753,-12.449099,-31.70432,27.745226,0.0034141077
4.292929,1.8989899,0.0028942153,-0.0018446874,-13.565455,-31.990263,28.457321,0.0034321062
4.292929,1.939394,0.002870258,-0.0019085482,-14.71013,-32.214584,29.16828,0.0034468735
4.292929,1.979798,0.0028410591,-0.001971621,-15.876582,-32.36821,29.874413,0.0034581653
4.292929,2.020202,0.0028064623,-0.0020337645,-17.059393,-32.44381,30.571674,0.003465895
4.292929,2.060606,0.0027663894,-0.0020947866,-18.252636,-32.43382,31.255741,0.0034700204
4.292929,2.10101,0.002720613,-0.00215438,-19.44914,-32.32991,31.922638,0.0034703154
4.292929,2.1414142,0.0026688464,-0.002212325,-20.643654,-32.126755,32.567867,0.0034665724
4.292929,2.1818182,0.0026109703,-0.0022684447,-21.83017,-31.818598,33.187057,0.0034587581
4.292929,2.2222223,0.0025467463,-0.0023223907,-23.001852,-31.39975,33.776188,0.0034466528
4.292929,2.2626262,0.00247588,-0.0023739059,-24.152966,-30.866606,34.330925,0.0034300745
4.292929,2.3030303,0.0023981407,-0.0024229046,-25.27802,-30.216972,34.846806,0.0034090388
4.292929,2.3434343,0.0023131035,-0.0024688914,-26.372072,-29.449461,35.319973,0.003383175
4.292929,2.3838384,0.0022207014,-0.0025117137,-27.430494,-28.564774,35.746826,0.0033526437
4.292929,2.4242425,0.0021204315,-0.0025511738,-28.44889,-27.564024,36.123478,0.0033173359
4.292929,2.4646466,0.0020121038,-0.0025870204,-29.423923,-26.452198,36.447376,0.0032773826
4.292929,2.5050504,0.0018953569,-0.002619002,-30.352612,-25.23336,36.7145,0.0032328856
4.292929,2.5454545,0.0017697588,-0.0026469156,-31.23308,-23.915056,36.923088,0.0031840554
4.292929,2.5858586,0.0016351007,-0.0026705805,-32.063564,-22.505804,37.070496,0.0031313824
4.292929,2.6262627,0.0014908984,-0.0026897825,-32.84377,-21.016315,37.154587,0.0030753387
4.292929,2.6666667,0.0013368726,-0.0027045738,-33.573616,-19.459223,37.174423,0.0030169433
4.292929,2.7070708,0.0011726506,-0.0027146153,-34.25429,-17.84725,37.128506,0.0029570672
4.292929,2.7474747,0.0009977594,-0.002720056,-34.886806,-16.196173,37.01617,0.0028972796
4.292929,2.7878788,0.00081202015,-0.002720734,-35.47408,-14.521788,36.83723,0.0028393257
4.292929,2.8282828,0.0006149672,-0.0027167648,-36.01988,-12.84277,36.5918,0.0027854973
4.292929,2.868687,0.0004062429,-0.0027080253,-36.52631,-11.175912,36.279533,0.0027383268
4.292929,2.909091,0.00018566474,-0.0026948154,-36.997654,-9.540312,35.902008,0.0027012036
4.292929,2.9494948,-4.730001e-05,-0.0026771575,-37.43881,-7.953983,35.459354,0.0026775755
4.292929,2.989899,-0.0002928637,-0.0026552435,-37.853798,-6.4363103,34.95246,0.0026713456
4.292929,3.030303,-0.0005512424,-0.0026292168,-38.246098,-5.0031433,34.382637,0.002686382
4.292929,3.070707,-0.00082295015,-0.0025994442,-38.620758,-3.6725934,33.749893,0.002726602
4.292929,3.1111112,-0.00110792,-0.0025661774,-38.979958,-2.4579847,33.05615,0.0027951302
4.292929,3.1515152,-0.0014066286,-0.0025297254,-39.326103,-1.372394,32.300674,0.0028944975
4.292929,3.191919,-0.0017191954,-0.002490418,-39.661243,-0.42544204,31.483881,0.0030261881
4.292929,3.2323232,-0.0020458288,-0.0024486352,-39.983894,0.37635785,30.604643,0.0031908038
4.292929,3.2727273,-0.0023867302,-0.0024047066,-40.29145,1.0317397,29.66175,0.0033880812
4.292929,3.3131313,-0.0027421303,-0.0023590475,-40.579727,1.540994,28.651865,0.0036172343
4.292929,3.3535354,-0.0031121,-0.0023120102,-40.840553,1.9110806,27.571486,0.0038769264
4.292929,3.3939395,-0.0034968182,-0.0022640284,-41.062763,2.154745,26.415773,0.0041657607
4.292929,3.4343433,-0.00389646,-0.00221527,-41.231976,2.2892568,25.177372,0.004482167
4.292929,3.4747474,-0.004311189,-0.0021662582,-41.328934,2.33886,23.847315,0.0048248344
4.292929,3.5151515,-0.004741166,-0.002117062,-41.328846,2.3353052,22.415102,0.0051923604
4.292929,3.5555556,-0.005186714,-0.002067998,-41.203255,2.3147688,20.866705,0.0055837817
4.292929,3.5959597,-0.0056478865,-0.0020191409,-40.91648,2.3231168,19.186617,0.0059979623
4.292929,3.6363637,-0.0061251074,-0.001970686,-40.427425,2.411132,17.356525,0.0064343256
4.292929,3.6767676,-0.0066188164,-0.0019223858,-39.685604,2.6401062,15.352713,0.006892336
4.292929,3.7171717,-0.0071294047,-0.0018742476,-38.634975,3.0757303,13.1514,0.007371649
4.292929,3.7575758,-0.007657621,-0.0018260069,-37.20978,3.7925138,10.722099,0.007872323
4.292929,3.7979798,-0.0082041435,-0.0017773397,-35.335682,4.8715057,8.03212,0.008394457
4.292929,3.838384,-0.008769948,-0.0017276853,-32.927486,6.4021735,5.0434823,0.008938505
4.292929,3.878788,-0.009356096,-0.0016765613,-29.891336,8.479093,1.7147009,0.009505125
4.292929,3.9191918,-0.009964041,-0.0016230885,-26.118376,11.205187,-2.002066,0.010095372
4.292929,3.959596,-0.010595456,-0.0015664715,-21.490755,14.688167,-6.159517,0.010710626
4.292929,4.0,-0.011252463,-0.00150555,-15.874509,19.043756,-10.815138,0.011352736
4.3434343,0.04040404,0.00069516525,0.00042265654,2.035179,-5.217033,3.435419,0.00081356824
4.3434343,0.08080808,0.000736963,0.00040645897,1.5556997,-6.4407096,4.2661242,0.0008416195
4.3434343,0.121212125,0.0007838942,0.00038780086,1.118782,-7.6017504,5.067079,0.000874574
4.3434343,0.16161616,0.00083549693,0.00036688522,0.724894,-8.699584,5.8372164,0.000912502
4.3434343,0.2020202,0.00089157,0.0003437195,0.37341362,-9.734372,6.5756884,0.0009555313
4.3434343,0.24242425,0.0009515956,0.00031835958,0.06454292,-10.706133,7.2820697,0.0010034376
4.3434343,0.28282827,0.0010152832,0.00029103272,-0.20320617,-11.615721,7.9561863,0.0010561723
4.3434343,0.32323232,0.0010821484,0.00026188046,-0.43025213,-12.463159,8.598013,0.0011133852
4.3434343,0.36363637,0.001151897,0.00023094565,-0.61871016,-13.2506485,9.207859,0.0011748202
4.3434343,0.4040404,0.0012240298,0.00019833446,-0.76992404,-13.979389,9.786509,0.0012399942
4.3434343,0.44444445,0.00129826,0.00016401708,-0.8862935,-14.651503,10.334999,0.0013085796
4.3434343,0.4848485,0.0013741776,0.00012836419,-0.9705705,-15.268982,10.854498,0.00138016
4.3434343,0.5252525,0.001451347,9.122677e-05,-1.0248866,-15.83449,11.346481,0.0014542113
4.3434343,0.56565654,0.0015294962,5.2886084e-05,-1.053105,-16.351171,11.812816,0.0015304103
4.3434343,0.6060606,0.0016081333,1.3358891e-05,-1.0587484,-16.822378,12.255505,0.0016081888
4.3434343,0.64646465,0.0016870014,-2.730824e-05,-1.0451076,-17.251532,12.676385,0.0016872224
4.3434343,0.68686867,0.0017656907,-6.903522e-05,-1.0166819,-17.642677,13.078319,0.0017670398
4.3434343,0.72727275,0.0018438436,-0.000111628324,-0.97817755,-17.999784,13.463414,0.0018472195
4.3434343,0.7676768,0.0019211322,-0.00015509874,-0.93341607,-18.32687,13.834605,0.0019273829
4.3434343,0.8080808,0.0019974075,-0.00019948184,-0.8870763,-18.628407,14.194519,0.002007344
4.3434343,0.8484849,0.0020721927,-0.00024462678,-0.8444348,-18.909071,14.546003,0.0020865821
4.3434343,0.8888889,0.0021453388,-0.00029045157,-0.8097897,-19.172575,14.89197,0.0021649112
4.3434343,0.9292929,0.002216462,-0.00033688173,-0.78867716,-19.42389,15.23527,0.0022419174
4.3434343,0.969697,0.0022854693,-0.0003840141,-0.78528714,-19.66697,15.578514,0.0023175066
4.3434343,1.010101,0.0023518875,-0.00043157674,-0.8049095,-19.90573,15.924722,0.0023911574
4.3434343,1.050505,0.0024157017,-0.00047985464,-0.85225,-20.144407,16.276537,0.0024628998
4.3434343,1.0909091,0.0024766736,-0.0005285647,-0.93109894,-20.38615,16.636412,0.002532448
4.3434343,1.1313131,0.0025345944,-0.0005778186,-1.0466734,-20.634453,17.006706,0.0025996235
4.3434343,1.1717172,0.0025893264,-0.00062751956,-1.2025621,-20.891865,17.389917,0.0026642806
4.3434343,1.2121212,0.0026407726,-0.000677675,-1.402089,-21.16049,17.787813,0.0027263388
4.3434343,1.2525252,0.0026885532,-0.0007283259,-1.6496499,-21.442636,18.202375,0.002785458
4.3434343,1.2929293,0.0027328283,-0.0007793531,-1.9474635,-21.739016,18.635006,0.0028417849
4.3434343,1.3333334,0.0027733147,-0.0008308068,-2.2984464,-22.050426,19.087032,0.0028950847
4.3434343,1.3737373,0.0028099008,-0.0008826889,-2.704648,-22.376846,19.559402,0.0029452813
4.3434343,1.4141414,0.0028425418,-0.0009348262,-3.1675794,-22.71677,20.052927,0.002992314
4.3434343,1.4545455,0.0028710738,-0.000987377,-3.6883204,-23.069374,20.56774,0.0030361123
4.3434343,1.4949495,0.002895452,-0.001040075,-4.267194,-23.431847,21.103916,0.0030765887
4.3434343,1.5353535,0.0029156469,-0.0010931995,-4.9044733,-23.802065,21.66146,0.0031138533
4.3434343,1.5757576,0.0029314533,-0.0011465196,-5.599339,-24.175714,22.239365,0.0031476857
4.3434343,1.6161616,0.0029429272,-0.0011999514,-6.3509364,-24.548489,22.836702,0.0031781606
4.3434343,1.6565657,0.0029498227,-0.0012535416,-7.157215,-24.91542,23.452068,0.003205124
4.3434343,1.6969697,0.0029522143,-0.0013070349,-8.01591,-25.270863,24.083942,0.003228608
4.3434343,1.7373737,0.002949912,-0.0013604611,-8.923903,-25.608358,24.730099,0.003248513
4.3434343,1.7777778,0.0029428303,-0.0014137588,-9.87822,-25.921513,25.38828,0.003264807
4.3434343,1.8181819,0.0029308982,-0.0014667641,-10.874568,-26.202572,26.05543,0.0032774322
4.3434343,1.8585858,0.0029139854,-0.0015194099,-11.908314,-26.444256,26.729082,0.0032863228
4.3434343,1.8989899,0.002892036,-0.001571374,-12.974899,-26.63864,27.405987,0.0032913657
4.3434343,1.939394,0.002864942,-0.0016226396,-14.069156,-26.778011,28.082376,0.0032925447
4.3434343,1.979798,0.0028323643,-0.0016729776,-15.185134,-26.854048,28.754332,0.0032895503
4.3434343,2.020202,0.0027943216,-0.001722293,-16.316956,-26.858875,29.418474,0.0032824574
4.3434343,2.060606,0.002750527,-0.0017703641,-17.459116,-26.785738,30.070131,0.0032710226
4.3434343,2.10101,0.0027009435,-0.001816906,-18.604675,-26.626434,30.705334,0.003255187
4.3434343,2.1414142,0.0026453547,-0.0018616952,-19.747599,-26.375093,31.320423,0.0032347813
4.3434343,2.1818182,0.0025835596,-0.0019046497,-20.882357,-26.026648,31.9102,0.0032097462
4.3434343,2.2222223,0.002515167,-0.0019452982,-22.001543,-25.573606,32.470764,0.003179662
4.3434343,2.2626262,0.0024401248,-0.001983665,-23.100546,-25.014738,32.99776,0.0031446996
4.3434343,2.3030303,0.0023581237,-0.0020193253,-24.173004,-24.345987,33.487225,0.0031045806
4.3434343,2.3434343,0.0022688434,-0.0020521693,-25.214083,-23.566319,33.93461,0.0030592564
4.3434343,2.3838384,0.0021720864,-0.0020817816,-26.218042,-22.674824,34.3366,0.0030086166
4.3434343,2.4242425,0.0020675324,-0.0021081474,-27.181526,-21.674072,34.68949,0.002952791
4.3434343,2.4646466,0.0019548386,-0.0021309517,-28.100273,-20.566618,34.9898,0.0028917727
4.3434343,2.5050504,0.001833681,-0.0021498464,-28.971504,-19.357141,35.234203,0.002825637
4.3434343,2.5454545,0.0017038174,-0.0021648295,-29.792782,-18.052574,35.42038,0.002754901
4.3434343,2.5858586,0.0015648492,-0.0021757465,-30.562483,-16.661346,35.545982,0.002680042
4.3434343,2.6262627,0.0014163665,-0.0021822546,-31.279776,-15.193192,35.608273,0.0026016014
4.3434343,2.6666667,0.0012581572,-0.0021844227,-31.944551,-13.659328,35.60635,0.0025208455
4.3434343,2.7070708,0.0010898411,-0.002182141,-32.557358,-12.074227,35.539085,0.0024391583
4.3434343,2.7474747,0.0009110309,-0.00217521,-33.119923,-10.451857,35.405106,0.0023582869
4.3434343,2.7878788,0.0007214621,-0.0021637604,-33.63445,-8.808485,35.204548,0.0022808698
4.3434343,2.8282828,0.0005206056,-0.0021477472,-34.10359,-7.1615186,34.93687,0.002209943
4.3434343,2.868687,0.0003083609,-0.0021272302,-34.531628,-5.5297456,34.602867,0.0021494639
4.3434343,2.909091,8.421764e-05,-0.0021023974,-34.921677,-3.931305,34.20271,0.0021040835
4.3434343,2.9494948,-0.00015189126,-0.0020732433,-35.27887,-2.3852878,33.737675,0.0020787998
4.3434343,2.989899,-0.0004005544,-0.0020399857,-35.60647,-0.910098,33.2084,0.0020789385
4.3434343,3.030303,-0.00066192076,-0.0020029359,-35.909916,0.47576535,32.615803,0.0021094766
4.3434343,3.070707,-0.0009362735,-0.0019622855,-36.193283,1.7537016,31.961054,0.002174206
4.3434343,3.1111112,-0.0012237839,-0.0019184109,-36.460842,2.9085069,31.24581,0.0022755105
4.3434343,3.1515152,-0.0015248172,-0.0018715654,-36.714516,3.9267838,30.46974,0.0024140887
4.3434343,3.191919,-0.0018394813,-0.0018221214,-36.9576,4.795691,29.633827,0.0025891731
4.3434343,3.2323232,-0.0021679401,-0.0017705243,-37.190388,5.506897,28.737715,0.002799057
4.3434343,3.2727273,-0.0025104545,-0.0017171279,-37.410034,6.057095,27.780535,0.003041531
4.3434343,3.3131313,-0.002867192,-0.0016623978,-37.615692,6.442826,26.76022,0.0033142655
4.3434343,3.3535354,-0.0032382123,-0.001606701,-37.80035,6.6691036,25.673866,0.0036149006
4.3434343,3.3939395,-0.0036237277,-0.0015504174,-37.95425,6.745268,24.517206,0.003941471
4.3434343,3.4343433,-0.004023824,-0.0014940035,-38.06625,6.684757,23.284294,0.004292226
4.3434343,3.4747474,-0.004438754,-0.0014378093,-38.11843,6.5095267,21.968178,0.0046658157
4.3434343,3.5151515,-0.0048684888,-0.0013821032,-38.090538,6.2459817,20.55851,0.005060869
4.3434343,3.5555556,-0.005313348,-0.0013272613,-37.956097,5.928165,19.044134,0.005476613
4.3434343,3.5959597,-0.0057734884,-0.0012732744,-37.682896,5.5980315,17.41025,0.0059122243
4.3434343,3.6363637,-0.0062491335,-0.0012206286,-37.232533,5.3046165,15.639921,0.006367229
4.3434343,3.6767676,-0.0067407005,-0.0011691246,-36.560543,5.102257,13.712665,0.0068413373
4.3434343,3.7171717,-0.0072484687,-0.0011187736,-35.61307,5.057382,11.605992,0.0073343
4.3434343,3.7575758,-0.0077731535,-0.0010694675,-34.329937,5.2402725,9.291807,0.00784638
4.3434343,3.7979798,-0.008315209,-0.0010208655,-32.64206,5.7297544,6.7401357,0.008377641
4.3434343,3.838384,-0.008875545,-0.00097260997,-30.469072,6.612922,3.9148805,0.008928677
4.3434343,3.878788,-0.009455178,-0.00092420727,-27.721445,7.9842124,0.77731407,0.009500239
4.3434343,3.9191918,-0.010055095,-0.00087497383,-24.299725,9.943754,-2.7166555,0.010093092
4.3434343,3.959596,-0.0106770955,-0.0008241609,-20.090452,12.598506,-6.6169753,0.010708856
4.3434343,4.0,-0.011322755,-0.0007707067,-14.968205,16.063843,-10.977311,0.011348955
4.3939395,0.04040404,0.00070808455,0.00040248223,2.007543,-4.9861555,3.153657,0.0008144788
4.3939395,0.08080808,0.00074996054,0.00038694032,1.5162841,-6.1443253,3.99013,0.00084389787
4.3939395,0.121212125,0.0007969551,0.00036918744,1.0669489,-7.2380595,4.7966604,0.0008783147
4.3939395,0.16161616,0.000848826,0.0003492944,0.6594318,-8.267035,5.5720744,0.00091788464
4.3939395,0.2020202,0.0009051226,0.00032734312,0.29438666,-9.23094,6.3155365,0.000962497
4.3939395,0.24242425,0.0009653531,0.0003034398,-0.02877921,-10.129766,7.0263915,0.0010119202
4.3939395,0.28282827,0.0010293238,0.00027780607,-0.31073952,-10.963713,7.70434,0.0010661536
4.3939395,0.32323232,0.0010964908,0.00025041215,-0.55235094,-11.734144,8.349376,0.0011247214
4.3939395,0.36363637,0.0011666082,0.00022143498,-0.7546009,-12.441405,8.961733,0.0011874377
4.3939395,0.4040404,0.0012392141,0.00019106083,-0.91920406,-13.087261,9.5420885,0.0012538563
4.3939395,0.44444445,0.0013138987,0.00015923195,-1.0483159,-13.673572,10.091083,0.0013235123
4.3939395,0.4848485,0.0013902783,0.00012625195,-1.1440403,-14.202466,10.610066,0.0013959991
4.3939395,0.5252525,0.0014679879,9.204261e-05,-1.2094543,-14.6765995,11.100378,0.0014708706
4.3939395,0.56565654,0.0015465431,5.6866556e-05,-1.24719,-15.098665,11.5636425,0.0015475882
4.3939395,0.6060606,0.0016257688,2.0692125e-05,-1.2607548,-15.472053,12.001785,0.0016259005
4.3939395,0.64646465,0.0017051138,-1.6298145e-05,-1.2536548,-15.800064,12.416915,0.0017051917
4.3939395,0.68686867,0.0017843433,-5.4091215e-05,-1.2300346,-16.086685,12.811408,0.001785163
4.3939395,0.72727275,0.0018629581,-9.252131e-05,-1.194051,-16.33597,13.187489,0.0018652541
4.3939395,0.7676768,0.0019409098,-0.00013168529,-1.1496296,-16.551931,13.548141,0.0019453719
4.3939395,0.8080808,0.0020176955,-0.00017132424,-1.10185,-16.739023,13.895849,0.002024956
4.3939395,0.8484849,0.0020928085,-0.00021138415,-1.055099,-16.901577,14.233252,0.0021034568
4.3939395,0.8888889,0.002166327,-0.0002518855,-1.0145141,-17.044224,14.563469,0.0021809216
4.3939395,0.9292929,0.0022377558,-0.0002927389,-0.98442787,-17.171457,14.889099,0.0022568223
4.3939395,0.969697,0.002307009,-0.00033400953,-0.9701398,-17.287775,15.213063,0.0023310625
4.3939395,1.010101,0.0023736246,-0.00037549622,-0.9756555,-17.396679,15.538205,0.002403142
4.3939395,1.050505,0.0024375245,-0.00041716918,-1.0064832,-17.503105,15.8671255,0.002472965
4.3939395,1.0909091,0.0024985485,-0.00045919232,-1.0667936,-17.610561,16.202635,0.002540394
4.3939395,1.1313131,0.0025564395,-0.00050131604,-1.1604662,-17.722061,16.546978,0.0026051297
4.3939395,1.1717172,0.0026109293,-0.00054356456,-1.2920992,-17.840956,16.902401,0.002666911
4.3939395,1.2121212,0.0026619844,-0.0005860049,-1.4651548,-17.969868,17.27116,0.0027257225
4.3939395,1.2525252,0.002709467,-0.00062863156,-1.6834234,-18.111183,17.65514,0.0027814363
4.3939395,1.2929293,0.0027530678,-0.0006712694,-1.9497336,-18.266367,18.055794,0.0028337229
4.3939395,1.3333334,0.002792891,-0.00071404316,-2.2667704,-18.435858,18.474735,0.002882724
4.3939395,1.3737373,0.0028286092,-0.0007569138,-2.6364872,-18.620481,18.91279,0.0029281308
4.3939395,1.4141414,0.0028601475,-0.0007997677,-3.0610464,-18.819706,19.37089,0.0029698606
4.3939395,1.4545455,0.0028875843,-0.0008427296,-3.5413656,-19.032837,19.849789,0.0030080453
4.3939395,1.4949495,0.002910655,-0.000885617,-4.0781407,-19.257738,20.349136,0.0030424052
4.3939395,1.5353535,0.0029293448,-0.00092853233,-4.671368,-19.492254,20.869043,0.0030729843
4.3939395,1.5757576,0.0029435083,-0.0009713881,-5.3208504,-19.733068,21.408958,0.0030996508
4.3939395,1.6161616,0.0029531494,-0.001014147,-6.0255637,-19.976614,21.968103,0.0031224326
4.3939395,1.6565657,0.0029581375,-0.0010566562,-6.783363,-20.21755,22.545023,0.003141194
4.3939395,1.6969697,0.0029582419,-0.001098929,-7.5928464,-20.451931,23.138256,0.003155763
4.3939395,1.7373737,0.0029536746,-0.0011409074,-8.450659,-20.673096,23.745996,0.0031663645
4.3939395,1.7777778,0.0029440708,-0.0011824891,-9.3538475,-20.874977,24.365889,0.0031726698
4.3939395,1.8181819,0.002929505,-0.0012235511,-10.298558,-21.05107,24.995419,0.0031747562
4.3939395,1.8585858,0.0029097907,-0.0012640283,-11.280397,-21.193521,25.631845,0.003172483
4.3939395,1.8989899,0.0028847493,-0.0013037305,-12.294721,-21.296085,26.271866,0.003165674
4.3939395,1.939394,0.002854485,-0.0013426039,-13.336093,-21.35025,26.912325,0.0031544683
4.3939395,1.979798,0.0028186627,-0.001380384,-14.399012,-21.348314,27.549414,0.0031385217
4.3939395,2.020202,0.0027771406,-0.0014168881,-15.478243,-21.282843,28.179293,0.0031177045
4.3939395,2.060606,0.002729889,-0.0014520828,-16.567324,-21.147213,28.798067,0.0030920606
4.3939395,2.10101,0.0026766248,-0.0014856271,-17.660307,-20.933386,29.401518,0.0030612755
4.3939395,2.1414142,0.0026172511,-0.001517538,-18.750982,-20.635824,29.985733,0.0030253802
4.3939395,2.1818182,0.0025514327,-0.0015473627,-19.83294,-20.248035,30.545835,0.0029839806
4.3939395,2.2222223,0.0024792068,-0.001575008,-20.899876,-19.764633,31.078054,0.0029371954
4.3939395,2.2626262,0.0024000816,-0.0016002934,-21.946396,-19.182905,31.577908,0.0028846718
4.3939395,2.3030303,0.0023139752,-0.0016228929,-22.966166,-18.498247,32.04155,0.0028263514
4.3939395,2.3434343,0.0022206046,-0.0016426928,-23.95402,-17.709814,32.46431,0.0027621593
4.3939395,2.3838384,0.0021196157,-0.0016593337,-24.905508,-16.817171,32.84275,0.002691869
4.3939395,2.4242425,0.0020109303,-0.0016726665,-25.815243,-15.821004,33.173122,0.0026156555
4.3939395,2.4646466,0.0018941052,-0.0016825963,-26.679855,-14.72429,33.452106,0.002533528
4.3939395,2.5050504,0.0017687082,-0.001688784,-27.495777,-13.530979,33.6759,0.0024454694
4.3939395,2.5454545,0.0016347505,-0.0016910769,-28.260809,-12.247391,33.842453,0.0023520524
4.3939395,2.5858586,0.0014916845,-0.0016893912,-28.972818,-10.881376,33.948795,0.0022537003
4.3939395,2.6262627,0.0013392046,-0.0016835276,-29.631035,-9.442354,33.99299,0.0021512168
4.3939395,2.6666667,0.0011770837,-0.0016733743,-30.235136,-7.942007,33.973312,0.0020459
4.3939395,2.7070708,0.0010049008,-0.0016588848,-30.785183,-6.391904,33.88854,0.0019395165
4.3939395,2.7474747,0.0008223392,-0.0016400274,-31.282808,-4.8079777,33.73731,0.0018346476
4.3939395,2.7878788,0.0006291382,-0.0016167313,-31.730003,-3.2048295,33.5199,0.00173483
4.3939395,2.8282828,0.00042488053,-0.0015890878,-32.129795,-1.600527,33.235638,0.0016449083
4.3939395,2.868687,0.00020923093,-0.0015570987,-32.484894,-0.012146371,32.884705,0.0015710932
4.3939395,2.909091,-1.7922372e-05,-0.0015210062,-32.800594,1.5397735,32.468136,0.0015211118
4.3939395,2.9494948,-0.0002571121,-0.0014807452,-33.08021,3.0378137,31.986284,0.0015029014
4.3939395,2.989899,-0.0005085878,-0.0014366172,-33.327873,4.4624434,31.440348,0.0015239852
4.3939395,3.030303,-0.0007724501,-0.001388954,-33.549965,5.7931376,30.83193,0.0015892993
4.3939395,3.070707,-0.0010491647,-0.0013378263,-33.74998,7.012857,30.16195,0.0017001546
4.3939395,3.1111112,-0.0013388619,-0.0012837481,-33.93309,8.1038885,29.431871,0.0018548748
4.3939395,3.1515152,-0.0016417913,-0.0012269132,-34.10196,9.050791,28.641914,0.002049584
4.3939395,3.191919,-0.0019581392,-0.0011677872,-34.260372,9.840312,27.794,0.0022799203
4.3939395,3.2323232,-0.0022881366,-0.0011068359,-34.409863,10.461241,26.887545,0.0025417819
4.3939395,3.2727273,-0.002631873,-0.0010443851,-34.54967,10.907476,25.922497,0.0028315182
4.3939395,3.3131313,-0.0029895045,-0.0009809639,-34.67945,11.173839,24.897884,0.0031463355
4.3939395,3.3535354,-0.003361214,-0.0009169448,-34.793545,11.262767,23.811493,0.003484042
4.3939395,3.3939395,-0.003747087,-0.0008527674,-34.885353,11.179763,22.65991,0.003842899
4.3939395,3.4343433,-0.0041473173,-0.0007889308,-34.94394,10.936016,21.438265,0.004221688
4.3939395,3.4747474,-0.00456189,-0.0007258747,-34.95676,10.548056,20.140673,0.0046192785
4.3939395,3.5151515,-0.004991006,-0.00066392124,-34.90375,10.039982,18.758802,0.005034971
4.3939395,3.5555556,-0.005434841,-0.0006034523,-34.763058,9.4419775,17.281792,0.00546824
4.3939395,3.5959597,-0.0058934763,-0.000544725,-34.504295,8.792976,15.697645,0.005918597
4.3939395,3.6363637,-0.006367225,-0.00048789196,-34.094563,8.135576,13.99046,0.0063858903
4.3939395,3.6767676,-0.006856229,-0.00043318234,-33.49134,7.5251436,12.142504,0.0068699
4.3939395,3.7171717,-0.007361006,-0.000380639,-32.647297,7.020411,10.132109,0.0073708408
4.3939395,3.7575758,-0.007881772,-0.0003301259,-31.505096,6.689696,7.934315,0.007888683
4.3939395,3.7979798,-0.008419234,-0.00028161705,-30.00059,6.6097097,5.520912,0.008423943
4.3939395,3.838384,-0.008974049,-0.00023459457,-28.058764,6.8655057,2.85896,0.008977115
4.3939395,3.878788,-0.00954698,-0.00018879026,-25.597488,7.546866,-0.08788641,0.009548847
4.3939395,3.9191918,-0.010139208,-0.0001435969,-22.521614,8.752788,-3.3609123,0.010140225
4.3939395,3.959596,-0.010751754,-9.828061e-05,-18.725376,10.590553,-7.006347,0.010752204
4.3939395,4.0,-0.011386372,-5.2060932e-05,-14.09075,13.171937,-11.075149,0.011386491
4.4444447,0.04040404,0.0007205382,0.00037975796,1.9667574,-4.7637677,2.8535066,0.0008144884
4.4444447,0.08080808,0.00076239556,0.00036499836,1.4643071,-5.856932,3.6947176,0.0008452637
4.4444447,0.121212125,0.000809446,0.0003480278,1.0026599,-6.8844504,4.505852,0.0008810937
4.4444447,0.16161616,0.0008612983,0.00032916665,0.5825658,-7.8451743,5.2856326,0.000922055
4.4444447,0.2020202,0.0009176098,0.0003083758,0.20420143,-8.73909,6.032981,0.00096804096
4.4444447,0.24242425,0.0009780154,0.00028593652,-0.13242592,-9.565746,6.7473984,0.0010189572
4.4444447,0.28282827,0.001042109,0.0002618488,-0.42791528,-10.325756,7.428121,0.0010745026
4.4444447,0.32323232,0.0011095628,0.0002362486,-0.6827733,-11.019319,8.075325,0.0011344352
4.4444447,0.36363637,0.0011798926,0.00020928495,-0.8977879,-11.647465,8.689173,0.0011983099
4.4444447,0.4040404,0.0012527816,0.00018100254,-1.0748276,-12.2116995,9.269941,0.0012657897
4.4444447,0.44444445,0.0013277493,0.00015173666,-1.2154725,-12.713468,9.818536,0.0013363915
4.4444447,0.4848485,0.0014045052,0.00012132153,-1.3217854,-13.154869,10.335938,0.0014097353
4.4444447,0.5252525,0.0014825426,9.0004876e-05,-1.3962513,-13.538332,10.823474,0.0014852722
4.4444447,0.56565654,0.0015614852,5.7920814e-05,-1.4421713,-13.866915,11.282682,0.0015625592
4.4444447,0.6060606,0.001641091,2.5115907e-05,-1.4619578,-14.143447,11.715353,0.0016412832
4.4444447,0.64646465,0.0017207898,-8.3278865e-06,-1.4596592,-14.37126,12.123633,0.00172081
4.4444447,0.68686867,0.0018003881,-4.2213127e-05,-1.4385986,-14.554312,12.509672,0.0018008829
4.4444447,0.72727275,0.0018794686,-7.662177e-05,-1.4031692,-14.6968,12.875843,0.0018810298
4.4444447,0.7676768,0.0019576363,-0.00011135079,-1.3576992,-14.802536,13.224635,0.0019608007
4.4444447,0.8080808,0.0020346716,-0.00014629029,-1.3061824,-14.875974,13.558713,0.0020399238
4.4444447,0.8484849,0.0021101646,-0.00018146262,-1.2536007,-14.921801,13.880989,0.0021179526
4.4444447,0.8888889,0.0021839477,-0.00021682493,-1.2042673,-14.94444,14.194216,0.0021946847
4.4444447,0.9292929,0.002255585,-0.0002521593,-1.1630278,-14.948056,14.501087,0.0022696361
4.4444447,0.969697,0.0023248754,-0.00028759986,-1.1350645,-14.938024,14.804424,0.0023425967
4.4444447,1.010101,0.00239164,-0.00032300688,-1.1245699,-14.918419,15.107257,0.0024133536
4.4444447,1.050505,0.0024555288,-0.00035842136,-1.1362101,-14.892812,15.412099,0.0024815495
4.4444447,1.0909091,0.0025164224,-0.00039362535,-1.1744633,-14.865732,15.721727,0.0025470224
4.4444447,1.1313131,0.0025741197,-0.00042878278,-1.2439306,-14.841188,16.038591,0.0026095875
4.4444447,1.1717172,0.002628345,-0.00046376884,-1.3485668,-14.822094,16.364904,0.0026689472
4.4444447,1.2121212,0.0026789755,-0.0004985519,-1.4919598,-14.811059,16.703096,0.0027249705
4.4444447,1.2525252,0.0027258433,-0.0005332157,-1.678071,-14.811469,17.054825,0.0027775064
4.4444447,1.2929293,0.0027688555,-0.00056765974,-1.909632,-14.824833,17.422195,0.0028264462
4.4444447,1.3333334,0.0028078519,-0.00060185604,-2.189303,-14.8522,17.806396,0.0028716307
4.4444447,1.3737373,0.0028427094,-0.0006359089,-2.5200279,-14.895324,18.208704,0.002912967
4.4444447,1.4141414,0.0028732195,-0.00066961534,-2.9029114,-14.95309,18.63002,0.0029502162
4.4444447,1.4545455,0.0028994195,-0.0007030349,-3.3396971,-15.02607,19.071108,0.0029834362
4.4444447,1.4949495,0.0029211529,-0.00073627196,-3.8308663,-15.112393,19.532024,0.0030125123
4.4444447,1.5353535,0.0029382743,-0.0007691402,-4.377339,-15.210659,20.012789,0.003037274
4.4444447,1.5757576,0.0029507615,-0.0008016005,-4.9780226,-15.317496,20.513237,0.0030577045
4.4444447,1.6161616,0.0029585361,-0.0008337442,-5.6327806,-15.430561,21.032333,0.0030737706
4.4444447,1.6565657,0.0029614083,-0.0008653514,-6.3394403,-15.545036,21.569206,0.0030852507
4.4444447,1.6969697,0.0029594637,-0.0008966271,-7.096437,-15.656876,22.122433,0.0030923074
4.4444447,1.7373737,0.0029524826,-0.0009272173,-7.901218,-15.760535,22.69018,0.0030946543
4.4444447,1.7777778,0.0029404573,-0.0009572618,-8.750595,-15.850607,23.270544,0.0030923518
4.4444447,1.8181819,0.0029232241,-0.0009865556,-9.640981,-15.920488,23.860987,0.0030852116
4.4444447,1.8585858,0.002900686,-0.0010149702,-10.568006,-15.963459,24.458908,0.0030731328
4.4444447,1.8989899,0.0028727166,-0.0010424946,-11.52738,-15.9724245,25.061052,0.0030560263
4.4444447,1.939394,0.0028393678,-0.0010690354,-12.513894,-15.940968,25.664577,0.0030339488
4.4444447,1.979798,0.0028002486,-0.0010943897,-13.522352,-15.861132,26.26552,0.0030065065
4.4444447,2.020202,0.0027554221,-0.0011183172,-14.547189,-15.725447,26.860594,0.0029737155
4.4444447,2.060606,0.0027046986,-0.001140831,-15.58162,-15.527301,27.445833,0.002935454
4.4444447,2.10101,0.002647888,-0.0011616908,-16.620691,-15.259634,28.016888,0.002891511
4.4444447,2.1414142,0.0025848076,-0.0011807047,-17.657738,-14.916228,28.569832,0.0028417062
4.4444447,2.1818182,0.002515234,-0.0011975393,-18.68637,-14.490682,29.100487,0.002785768
4.4444447,2.2222223,0.0024391115,-0.0012123752,-19.700771,-13.978867,29.604534,0.0027238058
4.4444447,2.2626262,0.0023561083,-0.0012246445,-20.694458,-13.375248,30.077847,0.002655372
4.4444447,2.3030303,0.0022660717,-0.0012344234,-21.662403,-12.677944,30.516262,0.002580481
4.4444447,2.3434343,0.0021687038,-0.0012412742,-22.598516,-11.88459,30.915289,0.0024988072
4.4444447,2.3838384,0.002063688,-0.0012450591,-23.497166,-10.992761,31.271114,0.0024101825
4.4444447,2.4242425,0.0019510053,-0.0012457445,-24.355412,-10.006551,31.581015,0.0023148004
4.4444447,2.4646466,0.0018301383,-0.001242917,-25.167696,-8.924883,31.839941,0.0022122948
4.4444447,2.5050504,0.0017008446,-0.0012365654,-25.93102,-7.75338,32.045654,0.0021028472
4.4444447,2.5454545,0.0015628636,-0.0012264252,-26.64301,-6.4972444,32.194874,0.0019866205
4.4444447,2.5858586,0.0014159344,-0.0012123417,-27.300709,-5.1624656,32.28533,0.0018640393
4.4444447,2.6262627,0.001259733,-0.0011943169,-27.90361,-3.7600543,32.31417,0.0017358917
4.4444447,2.6666667,0.0010938346,-0.0011721365,-28.45058,-2.298716,32.28015,0.0016032399
4.4444447,2.7070708,0.00091812015,-0.0011458211,-28.942741,-0.79296297,32.181988,0.0014682815
4.4444447,2.7474747,0.0007321127,-0.0011151731,-29.380709,0.74497855,32.017815,0.0013340164
4.4444447,2.7878788,0.0005355105,-0.0010804702,-29.766388,2.2993145,31.78792,0.0012058968
4.4444447,2.8282828,0.0003280528,-0.0010414328,-30.102224,3.8532574,31.491592,0.0010918796
4.4444447,2.868687,0.00010942295,-0.0009983182,-30.391611,5.3887577,31.129362,0.001004297
4.4444447,2.909091,-0.00012072176,-0.0009512026,-30.638826,6.8874207,30.70141,0.0009588327
4.4444447,2.9494948,-0.0003625527,-0.0009002313,-30.847956,8.329088,30.208761,0.00097049517
4.4444447,2.989899,-0.00061644986,-0.00084563345,-31.024046,9.694711,29.652586,0.0010464733
4.4444447,3.030303,-0.0008827038,-0.0007876232,-31.171621,10.965184,29.034155,0.0011830116
4.4444447,3.070707,-0.0011614114,-0.00072645396,-31.295807,12.120289,28.354776,0.0013698948
4.4444447,3.1111112,-0.001452934,-0.0006625615,-31.401587,13.143127,27.615873,0.0015968735
4.4444447,3.1515152,-0.0017574765,-0.00059617683,-31.493217,14.016177,26.819044,0.0018558423
4.4444447,3.191919,-0.0020752214,-0.00052779913,-31.574574,14.723526,25.964933,0.0021412882
4.4444447,3.2323232,-0.0024062395,-0.00045780465,-31.647964,15.254763,25.054594,0.0024494028
4.4444447,3.2727273,-0.002750799,-0.00038667955,-31.714643,15.599138,24.08815,0.002777844
4.4444447,3.3131313,-0.0031090267,-0.00031490996,-31.773645,15.751743,23.065113,0.0031249344
4.4444447,3.3535354,-0.0034810267,-0.00024285913,-31.82331,15.7096405,21.98411,0.0034894883
4.4444447,3.3939395,-0.0038668849,-0.00017116964,-31.857983,15.475545,20.842909,0.0038706716
4.4444447,3.4343433,-0.0042667277,-0.00010021031,-31.86834,15.059015,19.637579,0.0042679044
4.4444447,3.4747474,-0.0046806596,-3.0569732e-05,-31.8445,14.472517,18.36297,0.0046807593
4.4444447,3.5151515,-0.005108785,3.746897e-05,-31.769026,13.736235,17.012352,0.0051089223
4.4444447,3.5555556,-0.0055511184,0.00010338426,-31.623325,12.876438,15.576978,0.005552081
4.4444447,3.5959597,-0.0060080215,0.000166893,-31.380232,11.927923,14.0448675,0.006010339
4.4444447,3.6363637,-0.006479468,0.00022771023,-31.010073,10.930107,12.403218,0.006483468
4.4444447,3.6767676,-0.006965719,0.00028556958,-30.474125,9.934043,10.635508,0.00697157
4.4444447,3.7171717,-0.007467076,0.00034038536,-29.730097,8.993785,8.722289,0.0074748304
4.4444447,3.7575758,-0.0079838,0.000392152,-28.724398,8.175867,6.640778,0.007993425
4.4444447,3.7979798,-0.008516457,0.0004409235,-27.397907,7.5523515,4.3649516,0.008527864
4.4444447,3.838384,-0.009065606,0.00048682466,-25.682228,7.2034283,1.8645006,0.0090786675
4.4444447,3.878788,-0.009631868,0.00053029135,-23.499355,7.218072,-0.8941181,0.009646455
4.4444447,3.9191918,-0.010216188,0.00057176873,-20.760506,7.693188,-3.9497032,0.010232175
4.4444447,3.959596,-0.010819681,0.0006118715,-17.366692,8.73227,-7.3453197,0.010836968
4.4444447,4.0,-0.011443686,0.0006513633,-13.207793,10.445941,-11.128793,0.011462208
4.4949493,0.04040404,0.0007326193,0.00035454892,1.9142878,-4.550165,2.5351415,0.0008139017
4.4949493,0.08080808,0.00077427924,0.00034038164,1.4006528,-5.5796847,3.3801582,0.0008457943
4.4949493,0.121212125,0.0008211769,0.00032433867,0.92742264,-6.541489,4.194881,0.00088290835
4.4949493,0.16161616,0.00087300315,0.00030642748,0.49534622,-7.435136,4.977906,0.00092522014
4.4949493,0.2020202,0.0009292178,0.00028688833,0.10441657,-8.259812,5.7282486,0.0009724971
4.4949493,0.24242425,0.0009896718,0.00026574917,-0.24530707,-9.015939,6.445075,0.0010247306
4.4949493,0.28282827,0.0010537915,0.00024327636,-0.5533584,-9.702685,7.1279054,0.0010815082
4.4949493,0.32323232,0.001121249,0.00021933205,-0.82049125,-10.320945,7.776343,0.0011424999
4.4949493,0.36363637,0.0011917166,0.00019438751,-1.0476446,-10.871242,8.3906765,0.0012074665
4.4949493,0.4040404,0.0012647137,0.00016834028,-1.2358273,-11.354976,8.971133,0.001275868
4.4949493,0.44444445,0.0013398789,0.00014133379,-1.3866323,-11.77335,9.518321,0.0013473124
4.4949493,0.4848485,0.0014168024,0.000113558024,-1.502166,-12.128773,10.033195,0.0014213461
4.4949493,0.5252525,0.0014949776,8.510612e-05,-1.5845335,-12.422914,10.517019,0.0014973981
4.4949493,0.56565654,0.0015741847,5.6028366e-05,-1.636936,-12.659142,10.971206,0.0015751815
4.4949493,0.6060606,0.0016539805,2.647005e-05,-1.6616635,-12.840403,11.397541,0.0016541923
4.4949493,0.64646465,0.0017339997,-3.3825636e-06,-1.6620514,-12.969229,11.797911,0.001734003
4.4949493,0.68686867,0.0018137731,-3.3557415e-05,-1.6424781,-13.0503845,12.174447,0.0018140834
4.4949493,0.72727275,0.0018930845,-6.3955784e-05,-1.6058068,-13.08711,12.5295,0.0018941645
4.4949493,0.7676768,0.0019714907,-9.427965e-05,-1.5567912,-13.083895,12.865647,0.0019737438
4.4949493,0.8080808,0.0020487048,-0.00012471527,-1.4995618,-13.044877,13.185222,0.0020524971
4.4949493,0.8484849,0.0021243654,-0.0001550354,-1.4387758,-12.974736,13.491178,0.0021300153
4.4949493,0.8888889,0.0021981932,-0.0001853425,-1.3790863,-12.878844,13.786248,0.002205993
4.4949493,0.9292929,0.0022699162,-0.00021526031,-1.3243415,-12.76002,14.073142,0.0022801002
4.4949493,0.969697,0.0023392253,-0.00024503283,-1.2800783,-12.624716,14.354987,0.0023520237
4.4949493,1.010101,0.0024059862,-0.0002744831,-1.2507685,-12.476663,14.634244,0.0024215926
4.4949493,1.050505,0.0024697818,-0.00030358508,-1.2407458,-12.320173,14.913848,0.0024883703
4.4949493,1.0909091,0.002530422,-0.00033227913,-1.2549595,-12.159762,15.19643,0.0025521452
4.4949493,1.1313131,0.0025877915,-0.00036053732,-1.2973224,-11.999456,15.484566,0.0026127864
4.4949493,1.1717172,0.0026416816,-0.00038830563,-1.3720089,-11.8423815,15.780559,0.0026700678
4.4949493,1.2121212,0.002691891,-0.00041568466,-1.4829575,-11.692404,16.086966,0.0027237972
4.4949493,1.2525252,0.0027381591,-0.00044254214,-1.6339481,-11.551971,16.405281,0.0027736905
4.4949493,1.2929293,0.0027803555,-0.00046886876,-1.8282119,-11.423976,16.737822,0.0028196124
4.4949493,1.3333334,0.0028184503,-0.00049475394,-2.0681806,-11.309813,17.085829,0.0028615457
4.4949493,1.3737373,0.0028523877,-0.0005200021,-2.3562524,-11.210474,17.450956,0.0028993995
4.4949493,1.4141414,0.0028817356,-0.0005446784,-2.694754,-11.126734,17.834091,0.0029327588
4.4949493,1.4545455,0.002906654,-0.000568809,-3.0849082,-11.059034,18.235933,0.0029617867
4.4949493,1.4949495,0.002926994,-0.000592459,-3.5281334,-11.006589,18.656988,0.0029863527
4.4949493,1.5353535,0.0029425807,-0.00061537325,-4.02406,-10.967272,19.097298,0.0030062378
4.4949493,1.5757576,0.0029534325,-0.00063772127,-4.573495,-10.940295,19.556795,0.0030214984
4.4949493,1.6161616,0.0029592775,-0.00065945834,-5.1750755,-10.921713,20.034687,0.0030318655
4.4949493,1.6565657,0.0029602535,-0.00068044476,-5.8276544,-10.908759,20.530243,0.0030374504
4.4949493,1.6969697,0.0029559843,-0.0007006861,-6.529966,-10.89761,21.04185,0.0030378946
4.4949493,1.7373737,0.0029466376,-0.00072004646,-7.27862,-10.882217,21.568459,0.003033338
4.4949493,1.7777778,0.0029321983,-0.00073868595,-8.07166,-10.859351,22.107918,0.0030238128
4.4949493,1.8181819,0.0029123016,-0.0007563289,-8.904954,-10.821714,22.658138,0.003008909
4.4949493,1.8585858,0.0028870404,-0.0007729884,-9.775084,-10.764064,23.216122,0.002988731
4.4949493,1.8989899,0.0028562099,-0.00078850053,-10.677368,-10.679146,23.77974,0.0029630505
4.4949493,1.939394,0.0028196871,-0.0008028932,-11.607021,-10.560961,24.345129,0.0029317695
4.4949493,1.979798,0.0027775206,-0.0008158926,-12.558652,-10.402134,24.90942,0.0028948751
4.4949493,2.020202,0.0027294196,-0.00082748756,-13.527249,-10.195834,25.468945,0.0028520988
4.4949493,2.060606,0.0026752613,-0.00083742104,-14.506188,-9.934834,26.0198,0.0028032653
4.4949493,2.10101,0.0026149899,-0.0008456055,-15.489935,-9.612906,26.558138,0.0027483124
4.4949493,2.1414142,0.002548311,-0.00085187703,-16.472559,-9.223688,27.079895,0.0026869283
4.4949493,2.1818182,0.0024751201,-0.0008561965,-17.447708,-8.761725,27.580828,0.002619025
4.4949493,2.2222223,0.00239525,-0.0008581504,-18.408741,-8.220869,28.057016,0.0025443358
4.4949493,2.2626262,0.0023085512,-0.0008576922,-19.350582,-7.598483,28.503887,0.0024627312
4.4949493,2.3030303,0.002214659,-0.00085466355,-20.266294,-6.889203,28.917498,0.00237385
4.4949493,2.3434343,0.0021134391,-0.00084886886,-21.15105,-6.092216,29.293835,0.0022775433
4.4949493,2.3838384,0.0020046085,-0.00084002316,-21.99932,-5.205551,29.628666,0.002173498
4.4949493,2.4242425,0.0018880963,-0.0008281283,-22.80744,-4.2313404,29.918653,0.0020617237
4.4949493,2.4646466,0.0017633401,-0.0008128304,-23.569323,-3.1691055,30.159847,0.0019416646
4.4949493,2.5050504,0.0016303584,-0.000794081,-24.28279,-2.0237334,30.349373,0.001813459
4.4949493,2.5454545,0.0014886446,-0.000771692,-24.94418,-0.7988892,30.483719,0.0016767741
4.4949493,2.5858586,0.0013380349,-0.00074548274,-25.55092,0.49848562,30.56051,0.0015316925
4.4949493,2.6262627,0.001178205,-0.0007155463,-26.102613,1.8585509,30.57751,0.0013784679
4.4949493,2.6666667,0.0010089092,-0.0006815512,-26.597452,3.2733665,30.532515,0.0012175424
4.4949493,2.7070708,0.00082972646,-0.00064358115,-27.036192,4.729692,30.423916,0.001050068
4.4949493,2.7474747,0.000640478,-0.00060158595,-27.419146,6.214808,30.25093,0.00087870227
4.4949493,2.7878788,0.00044076517,-0.0005554855,-27.748354,7.7138543,30.013,0.00070911075
4.4949493,2.8282828,0.00023038685,-0.0005054921,-28.026947,9.208895,29.709242,0.0005555181
4.4949493,2.868687,9.033829e-06,-0.00045153126,-28.25665,10.685034,29.340536,0.00045162163
4.4949493,2.909091,-0.00022365525,-0.000393752,-28.44204,12.1220455,28.906334,0.00045283805
4.4949493,2.9494948,-0.00046795234,-0.000332376,-28.588068,13.500876,28.408104,0.00057398016
4.4949493,2.989899,-0.0007240139,-0.00026764162,-28.69882,14.801639,27.8472,0.00077189907
4.4949493,3.030303,-0.0009921826,-0.0001996085,-28.779163,16.005577,27.224506,0.0010120622
4.4949493,3.070707,-0.0012727268,-0.00012873672,-28.83517,17.091286,26.541605,0.0012792211
4.4949493,3.1111112,-0.0015657656,-5.539693e-05,-28.871605,18.041,25.800276,0.0015667452
4.4949493,3.1515152,-0.0018714629,2.0161271e-05,-28.893326,18.836292,25.002184,0.0018715715
4.4949493,3.191919,-0.0021902546,9.7524375e-05,-28.904388,19.462345,24.147839,0.0021924248
4.4949493,3.2323232,-0.0025220998,0.00017618947,-28.908411,19.903326,23.239416,0.0025282465
4.4949493,3.2727273,-0.002867207,0.00025569834,-28.907665,20.14864,22.276928,0.002878586
4.4949493,3.3131313,-0.0032255538,0.0003355518,-28.903057,20.190575,21.261364,0.0032429604
4.4949493,3.3535354,-0.0035975203,0.00041522644,-28.893616,20.023544,20.191044,0.0036214038
4.4949493,3.3939395,-0.0039829575,0.00049421005,-28.875105,19.648245,19.065182,0.0040135016
4.4949493,3.4343433,-0.0043820627,0.00057203695,-28.841679,19.070156,17.880726,0.004419242
4.4949493,3.4747474,-0.0047949925,0.00064810924,-28.783678,18.298151,16.633232,0.0048385947
4.4949493,3.5151515,-0.0052217618,0.00072199665,-28.68822,17.35021,15.317456,0.0052714394
4.4949493,3.5555556,-0.0056624785,0.0007933341,-28.537712,16.247574,13.925457,0.005717783
4.4949493,3.5959597,-0.0061171874,0.00086149666,-28.309547,15.021185,12.448164,0.0061775525
4.4949493,3.6363637,-0.006586034,0.00092636514,-27.976725,13.706815,10.873026,0.006650864
4.4949493,3.6767676,-0.0070691407,0.0009873919,-27.505936,12.349166,9.186233,0.007137765
4.4949493,3.7171717,-0.0075668544,0.0010445816,-26.856722,11.001708,7.3700085,0.0076386146
4.4949493,3.7575758,-0.008079372,0.0010977723,-25.981236,9.724637,5.4030504,0.008153611
4.4949493,3.7979798,-0.008607041,0.0011468958,-24.82606,8.585643,3.2630374,0.008683117
4.4949493,3.838384,-0.009150412,0.0011920733,-23.327324,7.662078,0.92137533,0.009227734
4.4949493,3.878788,-0.009709984,0.0012335293,-21.411179,7.0411034,-1.65347,0.009788022
4.4949493,3.9191918,-0.010286633,0.0012717089,-18.997307,6.812625,-4.4968424,0.010364944
4.4949493,3.959596,-0.010881171,0.0013070954,-15.992614,7.0795693,-7.648798,0.010959396
4.4949493,4.0,-0.011494823,0.0013402961,-12.292497,7.950262,-11.154154,0.011572698
4.5454545,0.04040404,0.0007441975,0.00032679737,1.8506804,-4.346278,2.198592,0.0008127893
4.5454545,0.08080808,0.00078563765,0.0003132671,1.3266925,-5.3127956,3.0464292,0.00084579125
4.5454545,0.121212125,0.0008322522,0.00029795058,0.8420459,-6.210688,3.8637898,0.0008839786
4.5454545,0.16161616,0.0008838214,0.0002810713,0.39816433,-7.0382695,4.6492844,0.000927438
4.5454545,0.2020202,0.0009399578,0.0002626516,-0.0049070735,-7.795692,5.401673,0.0009759644
4.5454545,0.24242425,0.0010001995,0.00024290755,-0.36630654,-8.481722,6.120189,0.001029273
4.5454545,0.28282827,0.001064226,0.00022189692,-0.68617046,-9.096744,6.80401,0.0010871133
4.5454545,0.32323232,0.0011316873,0.00019980781,-0.9645036,-9.640714,7.4529757,0.0011491907
4.5454545,0.36363637,0.0012020953,0.00017665699,-1.2026364,-10.114828,8.066832,0.0012150066
4.5454545,0.4040404,0.0012750551,0.0001527667,-1.401139,-10.519472,8.646125,0.0012841742
4.5454545,0.44444445,0.0013501979,0.00012812577,-1.5608642,-10.855793,9.191127,0.0013562635
4.5454545,0.4848485,0.001427155,0.00010290556,-1.6845396,-11.126665,9.702684,0.0014308601
4.5454545,0.5252525,0.0015054792,7.7145174e-05,-1.7735378,-11.333444,10.181849,0.0015074544
4.5454545,0.56565654,0.0015847124,5.1090494e-05,-1.8306348,-11.478806,10.630345,0.0015855357
4.5454545,0.6060606,0.0016646348,2.4780631e-05,-1.8587618,-11.565776,11.049389,0.0016648192
4.5454545,0.64646465,0.0017447509,-1.6875565e-06,-1.8605361,-11.597669,11.441027,0.0017447517
4.5454545,0.68686867,0.0018246695,-2.812408e-05,-1.8400443,-11.578079,11.807273,0.0018248863
4.5454545,0.72727275,0.0019039661,-5.4568052e-05,-1.8006576,-11.510739,12.150377,0.0019047479
4.5454545,0.7676768,0.001982525,-8.0764294e-05,-1.7464116,-11.400048,12.472817,0.0019841695
4.5454545,0.8080808,0.002059713,-0.00010670908,-1.6817771,-11.250412,12.777126,0.0020624753
4.5454545,0.8484849,0.0021354258,-0.00013234466,-1.6107429,-11.066238,13.065983,0.002139523
4.5454545,0.8888889,0.0022093616,-0.00015755743,-1.5377812,-10.852286,13.342085,0.0022149724
4.5454545,0.9292929,0.0022809915,-0.00018228777,-1.4678531,-10.613139,13.608098,0.0022882638
4.5454545,0.969697,0.0023502596,-0.00020648539,-1.405134,-10.353408,13.867199,0.0023593127
4.5454545,1.010101,0.002416756,-0.00023007393,-1.354726,-10.078382,14.12207,0.0024276827
4.5454545,1.050505,0.0024803542,-0.00025303662,-1.3210828,-9.792305,14.375281,0.0024932276
4.5454545,1.0909091,0.0025407188,-0.00027534366,-1.3083746,-9.499556,14.629794,0.002555595
4.5454545,1.1313131,0.002597712,-0.0002968181,-1.3212682,-9.2041,14.888144,0.0026146143
4.5454545,1.1717172,0.0026510172,-0.00031760335,-1.3635397,-8.910121,15.152662,0.0026699745
4.5454545,1.2121212,0.0027006604,-0.00033761188,-1.4398792,-8.621885,15.425934,0.0027216813
4.5454545,1.2525252,0.0027463064,-0.00035687536,-1.5530428,-8.341769,15.709879,0.0027693969
4.5454545,1.2929293,0.0027877614,-0.0003752932,-1.7068437,-8.072331,16.006458,0.0028129092
4.5454545,1.3333334,0.0028249733,-0.00039284676,-1.9038812,-7.8161273,16.31731,0.0028521575
4.5454545,1.3737373,0.0028577484,-0.0004096143,-2.1472542,-7.5752683,16.643953,0.002886955
4.5454545,1.4141414,0.0028859563,-0.00042552128,-2.4384418,-7.35008,16.987589,0.0029171584
4.5454545,1.4545455,0.0029096194,-0.00044049323,-2.7795544,-7.141667,17.349133,0.002942774
4.5454545,1.4949495,0.0029285215,-0.00045462325,-3.1714423,-6.9498267,17.729095,0.0029635993
4.5454545,1.5353535,0.0029425211,-0.0004679393,-3.614566,-6.7729445,18.127619,0.0029794963
4.5454545,1.5757576,0.0029515587,-0.0004802812,-4.109315,-6.6106033,18.544758,0.0029903792
4.5454545,1.6161616,0.002955567,-0.00049165636,-4.6553497,-6.4601097,18.980068,0.0029961814
4.5454545,1.6565657,0.002954457,-0.0005021319,-5.251247,-6.318551,19.432981,0.0029968238
4.5454545,1.6969697,0.0029481836,-0.0005115941,-5.895445,-6.1826944,19.902273,0.0029922426
4.5454545,1.7373737,0.0029366165,-0.00052001886,-6.585951,-6.0483856,20.386543,0.0029823037
4.5454545,1.7777778,0.0029195957,-0.0005274378,-7.320047,-5.911036,20.883844,0.0029668552
4.5454545,1.8181819,0.002897095,-0.00053357705,-8.094366,-5.7651644,21.392567,0.0029458215
4.5454545,1.8585858,0.0028691627,-0.00053865835,-8.905018,-5.6053123,21.910196,0.0029192888
4.5454545,1.8989899,0.0028354079,-0.00054239295,-9.748456,-5.425801,22.433546,0.0028868197
4.5454545,1.939394,0.002796024,-0.0005447492,-10.619263,-5.2197,22.960485,0.0028485965
4.5454545,1.979798,0.0027507097,-0.00054561347,-11.51269,-4.9806933,23.48714,0.0028042998
4.5454545,2.020202,0.002699446,-0.0005449075,-12.423132,-4.702158,24.010593,0.002753894
4.5454545,2.060606,0.0026419647,-0.0005425066,-13.345415,-4.3780985,24.52666,0.0026970895
4.5454545,2.10101,0.002578333,-0.0005382523,-14.272779,-4.0009975,25.031782,0.0026339164
4.5454545,2.1414142,0.002508182,-0.00053205155,-15.200198,-3.5657685,25.52196,0.0025639923
4.5454545,2.1818182,0.002431415,-0.0005238317,-16.121105,-3.0665872,25.993288,0.002487203
4.5454545,2.2222223,0.0023480467,-0.00051321834,-17.028898,-2.4979248,26.44154,0.00240348
4.5454545,2.2626262,0.0022576116,-0.0005001668,-17.9185,-1.8557007,26.862364,0.002312353
4.5454545,2.3030303,0.002160076,-0.00048453547,-18.783186,-1.1361886,27.252161,0.002213753
4.5454545,2.3434343,0.0020551644,-0.0004662238,-19.61802,-0.33757812,27.606102,0.0021073835
4.5454545,2.3838384,0.0019426383,-0.0004449617,-20.416855,0.5424084,27.920792,0.0019929463
4.5454545,2.4242425,0.0018224083,-0.00042066164,-21.1759,1.5026366,28.192583,0.0018703284
4.5454545,2.4646466,0.0016941093,-0.00039307214,-21.889935,2.5430372,28.417719,0.0017391124
4.5454545,2.5050504,0.0015574656,-0.00036215782,-22.555613,3.6600883,28.592516,0.0015990176
4.5454545,2.5454545,0.0014122128,-0.00032768212,-23.169758,4.849056,28.71414,0.0014497313
4.5454545,2.5858586,0.0012581833,-0.00028960407,-23.729067,6.1052904,28.77976,0.0012910832
4.5454545,2.6262627,0.0010950267,-0.00024790503,-24.233025,7.418867,28.787264,0.0011227379
4.5454545,2.6666667,0.00092240795,-0.00020236336,-24.680433,8.781504,28.734373,0.0009443449
4.5454545,2.7070708,0.0007401146,-0.00015294366,-25.070078,10.182896,28.619095,0.0007557522
4.5454545,2.7474747,0.00054785237,-9.9770725e-05,-25.403496,11.609169,28.441011,0.000556863
4.5454545,2.7878788,0.00034527853,-4.2611733e-05,-25.681746,13.046806,28.198647,0.00034789802
4.5454545,2.8282828,0.00013222918,1.8149614e-05,-25.908388,14.477924,27.891857,0.00013346896
4.5454545,2.868687,-9.1765076e-05,8.269213e-05,-26.084717,15.887532,27.520416,0.0001235266
4.5454545,2.909091,-0.00032679364,0.0001508519,-26.215294,17.256773,27.085148,0.0003599311
4.5454545,2.9494948,-0.0005731061,0.00022227131,-26.304544,18.566288,26.5866,0.0006146992
4.5454545,2.989899,-0.0008311495,0.00029702485,-26.356733,19.797432,26.025997,0.00088262866
4.5454545,3.030303,-0.0011009537,0.00037465058,-26.377354,20.92853,25.404408,0.001162954
4.5454545,3.070707,-0.0013829395,0.0004549008,-26.372234,21.94064,24.723776,0.0014558353
4.5454545,3.1111112,-0.0016771741,0.0005374756,-26.345875,22.814335,23.985287,0.0017611908
4.5454545,3.1515152,-0.0019839816,0.00062201545,-26.30415,23.531046,23.191036,0.0020792033
4.5454545,3.191919,-0.002303362,0.0007079821,-26.252481,24.071915,22.34277,0.0024097124
4.5454545,3.2323232,-0.0026355907,0.0007950086,-26.194315,24.423294,21.441849,0.0027528852
4.5454545,3.2727273,-0.0029808618,0.0008825138,-26.133232,24.571331,20.489138,0.0031087566
4.5454545,3.3131313,-0.0033391453,0.00097019225,-26.06981,24.50648,19.485287,0.003477235
4.5454545,3.3535354,-0.0037106462,0.00105727,-26.006388,24.221016,18.430893,0.0038583307
4.5454545,3.3939395,-0.004095398,0.0011433596,-25.939177,23.7135,17.324713,0.0042520063
4.5454545,3.4343433,-0.00449349,0.0012278073,-25.865778,22.98343,16.164919,0.0046582147
4.5454545,3.4747474,-0.0049051605,0.0013101948,-25.776255,22.04095,14.947996,0.0050771264
4.5454545,3.5151515,-0.0053301863,0.0013898555,-25.661497,20.896673,13.669922,0.0055084103
4.5454545,3.5555556,-0.0057687983,0.0014664177,-25.506666,19.569916,12.324182,0.0059522614
4.5454545,3.5959597,-0.0062209964,0.0015392946,-25.293049,18.08668,10.903234,0.0064086053
4.5454545,3.6363637,-0.006687019,0.0016080225,-24.995342,16.479185,9.395658,0.006877642
4.5454545,3.6767676,-0.007166762,0.0016724393,-24.584692,14.78792,7.7895017,0.0073593156
4.5454545,3.7171717,-0.007660631,0.0017321222,-24.024183,13.06152,6.0685625,0.007854013
4.5454545,3.7575758,-0.008168679,0.0017869174,-23.271893,11.355756,4.215291,0.008361842
4.5454545,3.7979798,-0.008691233,0.0018366836,-22.277962,9.734177,2.2073097,0.008883182
4.5454545,3.838384,-0.009228721,0.0018814616,-20.98369,8.270085,0.02001448,0.009418556
4.5454545,3.878788,-0.009781592,0.0019213865,-19.322445,7.0447845,-2.3760116,0.009968514
4.5454545,3.9191918,-0.010350529,0.0019567143,-17.21803,6.1477003,-5.013442,0.010533859
4.5454545,3.959596,-0.010936372,0.0019878326,-14.583628,5.6764927,-7.9299946,0.011115562
4.5454545,4.0,-0.011539973,0.0020153457,-11.323975,5.735422,-11.166302,0.011714632
4.5959597,0.04040404,0.0007553585,0.00029639527,1.776894,-4.152725,1.843961,0.0008114287
4.5959597,0.08080808,0.0007964112,0.00028349645,1.2427955,-5.0575037,2.6938953,0.0008453644
4.5959597,0.121212125,0.00084267184,0.0002689883,0.7474461,-5.89236,3.5131364,0.0008845624
4.5959597,0.16161616,0.00089396164,0.00025306642,0.29229662,-6.6557655,4.3002567,0.000929091
4.5959597,0.2020202,0.00094974786,0.00023580715,-0.121679895,-7.346507,5.053909,0.0009785837
4.5959597,0.24242425,0.0010096952,0.00021732412,-0.4942825,-7.9642973,5.7731037,0.0010328186
4.5959597,0.28282827,0.0010734946,0.00019785017,-0.82521343,-8.509069,6.4573083,0.0010915747
4.5959597,0.32323232,0.0011407062,0.00017740205,-1.1142933,-8.980825,7.10584,0.0011544186
4.5959597,0.36363637,0.0012108795,0.0001562573,-1.3622364,-9.379794,7.7186437,0.00122092
4.5959597,0.4040404,0.0012837537,0.00013429672,-1.5693537,-9.706904,8.2958975,0.0012907591
4.5959597,0.44444445,0.0013588034,0.00011194125,-1.7375202,-9.963685,8.837907,0.0013634065
4.5959597,0.4848485,0.001435671,8.9179724e-05,-1.8676982,-10.151438,9.345403,0.0014384382
4.5959597,0.5252525,0.0015138648,6.617792e-05,-1.9620376,-10.272203,9.819485,0.0015153106
4.5959597,0.56565654,0.0015931688,4.2993575e-05,-2.0225973,-10.328598,10.261313,0.0015937488
4.5959597,0.6060606,0.0016729869,1.9824132e-05,-2.0523617,-10.323408,10.672338,0.0016731044
4.5959597,0.64646465,0.0017530508,-3.233552e-06,-2.0542502,-10.260003,11.054574,0.0017530537
4.5959597,0.68686867,0.0018329434,-2.6099384e-05,-2.0313377,-10.141571,11.409854,0.0018331292
4.5959597,0.72727275,0.0019123107,-4.8674643e-05,-1.9875401,-9.972296,11.740289,0.00191293
4.5959597,0.7676768,0.001990728,-7.080659e-05,-1.9263778,-9.755956,12.048373,0.0019919868
4.5959597,0.8080808,0.0020680055,-9.24319e-05,-1.8519664,-9.497017,12.336506,0.0020700702
4.5959597,0.8484849,0.0021436103,-0.000113453716,-1.7689457,-9.20063,12.607338,0.0021466105
4.5959597,0.8888889,0.0022173189,-0.0001338236,-1.6814353,-8.870695,12.863696,0.0022213536
4.5959597,0.9292929,0.0022888593,-0.00015338138,-1.5936998,-8.512079,13.108179,0.0022939928
4.5959597,0.969697,0.0023579188,-0.00017213449,-1.5109429,-8.130528,13.343773,0.0023641936
4.5959597,1.010101,0.0024242066,-0.00018998608,-1.4372687,-7.729828,13.573273,0.00243164
4.5959597,1.050505,0.0024874173,-0.00020701438,-1.3772868,-7.3153615,13.799485,0.0024960167
4.5959597,1.0909091,0.0025474764,-0.00022295862,-1.3355422,-6.891362,14.024982,0.0025572146
4.5959597,1.1313131,0.0026038997,-0.00023790449,-1.3166755,-6.4625697,14.252701,0.0026147452
4.5959597,1.1717172,0.0026567616,-0.00025186688,-1.3243247,-6.032783,14.484891,0.0026686736
4.5959597,1.2121212,0.0027057044,-0.00026475266,-1.3627647,-5.6065984,14.724006,0.0027186265
4.5959597,1.2525252,0.0027505606,-0.00027647614,-1.4360836,-5.187163,14.97248,0.0027644208
4.5959597,1.2929293,0.002791237,-0.00028717518,-1.546933,-4.7775025,15.232223,0.002805971
4.5959597,1.3333334,0.0028274283,-0.00029669888,-1.6989784,-4.3802485,15.504757,0.002842953
4.5959597,1.3737373,0.0028591603,-0.00030507334,-1.8945901,-3.9977348,15.792046,0.00287539
4.5959597,1.4141414,0.0028861798,-0.0003122948,-2.1358547,-3.6313176,16.095108,0.0029030263
4.5959597,1.4545455,0.0029084496,-0.00031838194,-2.4250393,-3.282122,16.41517,0.002925824
4.5959597,1.4949495,0.0029258393,-0.00032327324,-2.7632306,-2.950398,16.752773,0.002943644
4.5959597,1.5353535,0.0029382966,-0.00032703765,-3.1511414,-2.6363745,17.108467,0.0029564404
4.5959597,1.5757576,0.0029455833,-0.00032957643,-3.5889206,-2.338381,17.482327,0.002963964
4.5959597,1.6161616,0.0029477142,-0.0003308989,-4.0765533,-2.0549376,17.874094,0.0029662286
4.5959597,1.6565657,0.0029446296,-0.0003310833,-4.613182,-1.7842636,18.283218,0.002963184
4.5959597,1.6969697,0.0029361919,-0.00032997876,-5.197185,-1.5231624,18.70898,0.0029546758
4.5959597,1.7373737,0.0029223599,-0.00032761693,-5.827053,-1.268285,19.14975,0.0029406666
4.5959597,1.7777778,0.0029028878,-0.0003239978,-6.499926,-1.0155663,19.604141,0.002920913
4.5959597,1.8181819,0.0028779544,-0.00031895563,-7.2130256,-0.7602531,20.070532,0.002895575
4.5959597,1.8585858,0.0028472394,-0.00031251833,-7.962606,-0.4972247,20.546274,0.0028643394
4.5959597,1.8989899,0.0028107874,-0.00030465238,-8.744598,-0.22088464,21.029293,0.0028272492
4.5959597,1.939394,0.002768468,-0.00029518828,-9.554782,0.074399464,21.516565,0.002784161
4.5959597,1.979798,0.0027201287,-0.00028412975,-10.388306,0.39498794,22.00503,0.002734928
4.5959597,2.020202,0.0026657246,-0.0002714228,-11.239671,0.7465699,22.49152,0.002679507
4.5959597,2.060606,0.0026051179,-0.00025681965,-12.103931,1.1352572,22.972599,0.0026177464
4.5959597,2.10101,0.0025380664,-0.00024033897,-12.974227,1.5684091,23.443926,0.0025494203
4.5959597,2.1414142,0.0024646558,-0.00022190437,-13.845583,2.0505857,23.902786,0.0024746251
4.5959597,2.1818182,0.00238448,-0.00020118803,-14.711711,2.5880873,24.34409,0.0023929526
4.5959597,2.2222223,0.0022976473,-0.00017817318,-15.566702,3.1849058,24.764507,0.0023045451
4.5959597,2.2626262,0.0022036396,-0.00015280582,-16.404087,3.8467772,25.159771,0.0022089311
4.5959597,2.3030303,0.002102606,-0.00012483448,-17.218323,4.5762906,25.525688,0.0021063085
4.5959597,2.3434343,0.0019942373,-9.419024e-05,-18.003696,5.3765235,25.858551,0.0019964604
4.5959597,2.3838384,0.0018782467,-6.061606e-05,-18.754713,6.249203,26.154083,0.0018792246
4.5959597,2.4242425,0.0017544366,-2.40691e-05,-19.466732,7.1943064,26.40866,0.0017546017
4.5959597,2.4646466,0.0016226433,1.5575439e-05,-20.134537,8.211198,26.618622,0.0016227181
4.5959597,2.5050504,0.0014825203,5.8514997e-05,-20.755322,9.296876,26.780525,0.0014836746
4.5959597,2.5454545,0.0013340041,0.000104812905,-21.32481,10.448088,26.891483,0.0013381153
4.5959597,2.5858586,0.0011767037,0.00015456602,-21.84028,11.659588,26.948425,0.0011868118
4.5959597,2.6262627,0.0010102801,0.00020791776,-22.300373,12.923176,26.948675,0.0010314531
4.5959597,2.6666667,0.0008346103,0.0002648197,-22.703257,14.231542,26.890558,0.0008756163
4.5959597,2.7070708,0.0006494373,0.00032537058,-23.049185,15.572827,26.772018,0.00072638475
4.5959597,2.7474747,0.00045439228,0.0003895834,-23.337978,16.93562,26.59166,0.00059853785
4.5959597,2.7878788,0.00024922565,0.00045741722,-23.57142,18.305717,26.348917,0.0005209068
4.5959597,2.8282828,3.3725053e-05,0.0005287882,-23.751112,19.668478,26.042822,0.0005298626
4.5959597,2.868687,-0.00019250065,0.0006037336,-23.880224,21.006752,25.673386,0.0006336803
4.5959597,2.909091,-0.00042962655,0.00068196096,-23.961823,22.303333,25.241112,0.0008060085
4.5959597,2.9494948,-0.00067788735,0.00076328404,-24.000923,23.53863,24.74653,0.0010208496
4.5959597,2.989899,-0.000937473,0.00084764324,-24.001589,24.693647,24.191277,0.001263865
4.5959597,3.030303,-0.0012087896,0.0009347247,-23.96911,25.748981,23.57564,0.0015280322
4.5959597,3.070707,-0.0014919154,0.0010241661,-23.909996,26.68297,22.90207,0.001809621
4.5959597,3.1111112,-0.0017870702,0.0011156388,-23.828537,27.476673,22.171953,0.00210672
4.5959597,3.1515152,-0.0020945147,0.0012087636,-23.731607,28.110382,21.387243,0.0024182848
4.5959597,3.191919,-0.0024143234,0.0013031084,-23.6231,28.566786,20.549826,0.0027435469
4.5959597,3.2323232,-0.0027467087,0.0013982914,-23.508755,28.829218,19.661291,0.0030821466
4.5959597,3.2727273,-0.0030917414,0.0014937101,-23.39258,28.88223,18.722984,0.003433662
4.5959597,3.3131313,-0.003449645,0.0015888549,-23.277346,28.714088,17.736925,0.0037979612
4.5959597,3.3535354,-0.0038204417,0.0016831672,-23.16471,28.315895,16.70257,0.0041747848
4.5959597,3.3939395,-0.0042041615,0.001776143,-23.05371,27.68252,15.619903,0.0045639523
4.5959597,3.4343433,-0.004600972,0.0018671267,-22.942177,26.813057,14.488651,0.0049653905
4.5959597,3.4747474,-0.005010873,0.0019555762,-22.824228,25.711893,13.305658,0.0053789522
4.5959597,3.5151515,-0.0054339617,0.002040932,-22.69198,24.386965,12.06799,0.005804597
4.5959597,3.5555556,-0.0058702305,0.00212265,-22.532911,22.855024,10.770499,0.006242215
4.5959597,3.5959597,-0.006319754,0.002200204,-22.330847,21.136627,9.40622,0.0066918
4.5959597,3.6363637,-0.0067824908,0.0022730017,-22.065243,19.260447,7.966671,0.007153231
4.5959597,3.6767676,-0.007258676,0.002340775,-21.709934,17.262,6.440595,0.007626769
4.5959597,3.7171717,-0.0077484585,0.0024031475,-21.23227,15.186298,4.814087,0.008112567
4.5959597,3.7575758,-0.008251879,0.0024598017,-20.59383,13.083353,3.0709145,0.008610698
4.5959597,3.7979798,-0.008769203,0.0025105374,-19.749983,11.013636,1.1915736,0.009121497
4.5959597,3.838384,-0.0093008205,0.0025553107,-18.647589,9.044746,-0.84681934,0.009645459
4.5959597,3.878788,-0.009847026,0.0025940733,-17.225594,7.25311,-3.0703235,0.010182983
4.5959597,3.9191918,-0.010408379,0.0026270878,-15.412577,5.7250323,-5.5096993,0.010734801
4.5959597,3.959596,-0.010985479,0.0026546456,-13.130021,4.552869,-8.19877,0.011301677
4.5959597,4.0,-0.011579346,0.0026771743,-10.28738,3.8388224,-11.176629,0.011884802
4.646465,0.04040404,0.00076600164,0.0002634041,1.6941499,-3.9697201,1.4718082,0.00081002485
4.646465,0.08080808,0.00080651045,0.0002510585,1.1499896,-4.814688,2.322825,0.0008446831
4.646465,0.121212125,0.0008523576,0.00023739785,0.6446797,-5.587771,3.143156,0.0008848001
4.646465,0.16161616,0.0009031184,0.00022241473,0.17893462,-6.2879715,3.9310148,0.0009301028
4.646465,0.2020202,0.0009584725,0.00020629913,-0.24569663,-6.9140286,4.6852117,0.0009804227
4.646465,0.24242425,0.0010181405,0.00018909574,-0.62874705,-7.4653573,5.404648,0.0010355517
4.646465,0.28282827,0.0010815784,0.00017102435,-0.96948683,-7.9413066,6.088361,0.0010950165
4.646465,0.32323232,0.0011484064,0.0001522433,-1.2685008,-8.342327,6.7358284,0.0011584539
4.646465,0.36363637,0.0012183636,0.0001328215,-1.5251814,-8.668437,7.346828,0.0012255821
4.646465,0.4040404,0.0012908727,0.00011294708,-1.7405052,-8.920067,7.921311,0.0012958045
4.646465,0.44444445,0.0013657287,9.283982e-05,-1.915064,-9.098269,8.459724,0.0013688806
4.646465,0.4848485,0.0014424324,7.246435e-05,-2.0507936,-9.205057,8.962651,0.0014442515
4.646465,0.5252525,0.0015204288,5.2032992e-05,-2.1489735,-9.2419,9.430794,0.0015213189
4.646465,0.56565654,0.0015994161,3.1726435e-05,-2.2122061,-9.211478,9.865445,0.0015997307
4.646465,0.6060606,0.0016792007,1.158379e-05,-2.2423759,-9.116334,10.267947,0.0016792406
4.646465,0.64646465,0.0017591082,-8.193776e-06,-2.2425535,-8.959318,10.640128,0.0017591272
4.646465,0.68686867,0.0018388294,-2.7608126e-05,-2.2160025,-8.7445,10.983754,0.0018390366
4.646465,0.72727275,0.0019180141,-4.6459958e-05,-2.1660554,-8.475016,11.300937,0.0019185768
4.646465,0.7676768,0.0019963495,-6.4590946e-05,-2.0961561,-8.155039,11.594073,0.0019973943
4.646465,0.8080808,0.00207337,-8.19359e-05,-2.0108962,-7.7894087,11.865342,0.0020749883
4.646465,0.8484849,0.002148781,-9.846315e-05,-1.9138222,-7.382088,12.117681,0.0021510357
4.646465,0.8888889,0.0022223853,-0.000114051625,-1.8096423,-6.9384856,12.353598,0.0022253098
4.646465,0.9292929,0.0022936203,-0.00012872368,-1.7027656,-6.462947,12.575864,0.0022972296
4.646465,0.969697,0.0023623742,-0.0001421459,-1.5973723,-5.960428,12.787363,0.002366647
4.646465,1.010101,0.0024282895,-0.00015454553,-1.4985144,-5.436254,12.990832,0.0024332025
4.646465,1.050505,0.0024911575,-0.0001656264,-1.4106314,-4.895123,13.189148,0.0024966574
4.646465,1.0909091,0.002550736,-0.00017553195,-1.3376758,-4.3417687,13.385116,0.0025567687
4.646465,1.1313131,0.0026066601,-0.00018413179,-1.2846435,-3.7809405,13.581306,0.0026131554
4.646465,1.1717172,0.002658829,-0.00019134954,-1.2557789,-3.2170224,13.780364,0.0026657057
4.646465,1.2121212,0.0027070865,-0.00019726157,-1.2542975,-2.6543088,13.984802,0.002714264
4.646465,1.2525252,0.0027511306,-0.00020169467,-1.2851145,-2.0965183,14.196951,0.0027585141
4.646465,1.2929293,0.0027908832,-0.00020480528,-1.350987,-1.5474573,14.418892,0.0027983878
4.646465,1.3333334,0.0028260984,-0.00020649657,-1.4552852,-1.0099059,14.652479,0.0028336325
4.646465,1.3737373,0.0028567724,-0.00020672381,-1.6009592,-0.48654094,14.899337,0.002864242
4.646465,1.4141414,0.002882585,-0.00020554289,-1.7899913,0.020775098,15.161114,0.0028899037
4.646465,1.4545455,0.002903439,-0.00020287558,-2.0248947,0.5107038,15.438673,0.0029105183
4.646465,1.4949495,0.0029193796,-0.00019874424,-2.3069093,0.9815629,15.733244,0.0029261368
4.646465,1.5353535,0.002930168,-0.00019316562,-2.6368945,1.433905,16.045229,0.002936528
4.646465,1.5757576,0.0029357448,-0.00018616766,-3.0153713,1.8679821,16.374798,0.0029416417
4.646465,1.6161616,0.0029361024,-0.00017768703,-3.4425507,2.2841806,16.722015,0.002941474
4.646465,1.6565657,0.00293101,-0.00016779825,-3.917479,2.6845515,17.086557,0.0029358093
4.646465,1.6969697,0.0029203855,-0.00015627965,-4.439105,3.0718787,17.467514,0.002924564
4.646465,1.7373737,0.0029043183,-0.00014335476,-5.005766,3.4482563,17.864029,0.0029078543
4.646465,1.7777778,0.0028825179,-0.00012890063,-5.6156163,3.8177452,18.274668,0.0028853985
4.646465,1.8181819,0.0028550066,-0.00011282787,-6.2649074,4.184362,18.697767,0.0028572353
4.646465,1.8585858,0.002821736,-9.514205e-05,-6.9513016,4.552103,19.131163,0.0028233395
4.646465,1.8989899,0.0027825497,-7.58823e-05,-7.6706595,4.926194,19.572615,0.0027835842
4.646465,1.939394,0.0027373843,-5.4880977e-05,-8.418661,5.3121886,20.019669,0.0027379345
4.646465,1.979798,0.0026861243,-3.2154843e-05,-9.190746,5.715449,20.46929,0.0026863168
4.646465,2.020202,0.0026286505,-7.5548887e-06,-9.981925,6.141689,20.91841,0.0026286615
4.646465,2.060606,0.0025649406,1.8961728e-05,-10.786185,6.597554,21.363602,0.0025650107
4.646465,2.10101,0.002494704,4.751794e-05,-11.599175,7.087626,21.801262,0.0024951566
4.646465,2.1414142,0.0024179704,7.812679e-05,-12.413839,7.6187224,22.227959,0.0024192324
4.646465,2.1818182,0.0023346245,0.0001109913,-13.2253475,8.1948,22.63958,0.0023372613
4.646465,2.2222223,0.0022443645,0.00014615431,-14.026903,8.821659,23.032278,0.0022491184
4.646465,2.2626262,0.0021470785,0.00018374994,-14.812337,9.504213,23.401974,0.002154927
4.646465,2.3030303,0.0020426176,0.00022385642,-15.57658,10.24482,23.744856,0.0020548475
4.646465,2.3434343,0.0019308254,0.00026666187,-16.313564,11.046972,24.056637,0.0019491524
4.646465,2.3838384,0.0018114634,0.00031237863,-17.017857,11.91221,24.333824,0.0018382001
4.646465,2.4242425,0.0016843639,0.0003608726,-17.684416,12.841491,24.572433,0.0017225884
4.646465,2.4646466,0.0015492253,0.0004125014,-18.308252,13.834488,24.768536,0.001603202
4.646465,2.5050504,0.0014059767,0.0004672017,-18.886051,14.88823,24.919224,0.0014815694
4.646465,2.5454545,0.001254227,0.0005251914,-19.41372,16.000183,25.02089,0.0013597468
4.646465,2.5858586,0.0010937974,0.00058645755,-19.888567,17.164925,25.070812,0.0012410984
4.646465,2.6262627,0.00092446804,0.0006511342,-20.308271,18.377075,25.066431,0.0011307595
4.646465,2.6666667,0.0007459447,0.0007192027,-20.671736,19.626549,25.005299,0.0010361882
4.646465,2.7070708,0.0005580522,0.00079072267,-20.977856,20.904867,24.886087,0.00096781435
4.646465,2.7474747,0.0003604479,0.0008658059,-21.226885,22.20071,24.706839,0.0009378393
4.646465,2.7878788,0.00015284121,0.0009442698,-21.419788,23.501173,24.466557,0.0009565594
4.646465,2.8282828,-6.4935535e-05,0.0010260139,-21.558838,24.790346,24.164742,0.0010280666
4.646465,2.868687,-0.00029316917,0.0011110539,-21.646378,26.052979,23.801128,0.0011490817
4.646465,2.909091,-0.0005320795,0.001199103,-21.685688,27.271616,23.37621,0.0013118524
4.646465,2.9494948,-0.00078197196,0.001290204,-21.68072,28.428755,22.889994,0.001508677
4.646465,2.989899,-0.0010430776,0.0013839705,-21.63629,29.504715,22.343767,0.0017330277
4.646465,3.030303,-0.0013154298,0.0014802087,-21.558014,30.47911,21.73903,0.0019802458
4.646465,3.070707,-0.0015994646,0.0015786039,-21.450886,31.331882,21.077353,0.002247282
4.646465,3.1111112,-0.0018953867,0.0016787546,-21.321466,32.042732,20.360142,0.0025319376
4.646465,3.1515152,-0.0022031553,0.0017803106,-21.174835,32.593655,19.589838,0.0028325606
4.646465,3.191919,-0.0025231875,0.001882893,-21.016962,32.963665,18.767908,0.003148295
4.646465,3.2323232,-0.0028553493,0.001985889,-20.85349,33.13615,17.896883,0.0034780416
4.646465,3.2727273,-0.0032000504,0.0020889034,-20.68882,33.095512,16.978071,0.003821497
4.646465,3.3131313,-0.0035571605,0.0021914337,-20.52656,32.827877,16.013363,0.0041780104
4.646465,3.3535354,-0.003926944,0.0022927877,-20.36983,32.321995,15.00336,0.0045472807
4.646465,3.3939395,-0.0043093525,0.0023924578,-20.219286,31.570688,13.9486685,0.004928932
4.646465,3.4343433,-0.004704546,0.0024898667,-20.073826,30.570257,12.848888,0.005322799
4.646465,3.4747474,-0.005112525,0.0025843345,-19.929258,29.322918,11.702995,0.005728586
4.646465,3.5151515,-0.005533308,0.0026752288,-19.780561,27.832848,10.508151,0.0061460836
4.646465,3.5555556,-0.005966898,0.0027621025,-19.617039,26.11255,9.260359,0.0065751867
4.646465,3.5959597,-0.0064133257,0.0028442992,-19.425236,24.180147,7.9543934,0.0070157526
4.646465,3.6363637,-0.006872814,0.002921315,-19.188036,22.058912,6.5825343,0.0074679083
4.646465,3.6767676,-0.007345196,0.0029926412,-18.881712,19.78167,5.135082,0.007931444
4.646465,3.7171717,-0.007830624,0.0030578068,-18.479742,17.385199,3.6009998,0.008406476
4.646465,3.7575758,-0.0083293095,0.0031165956,-17.946365,14.917638,1.964804,0.008893288
4.646465,3.7979798,-0.008841246,0.0031686015,-17.242094,12.434221,0.21003652,0.009391894
4.646465,3.838384,-0.009366736,0.0032136925,-16.31774,9.997107,-1.6845906,0.0099027045
4.646465,3.878788,-0.009906329,0.003251912,-15.1172285,7.679633,-3.7428584,0.010426423
4.646465,3.9191918,-0.010460153,0.003283158,-13.576939,5.5616636,-5.9923515,0.010963299
4.646465,3.959596,-0.011028815,0.003307796,-11.6241865,3.7305028,-8.463965,0.011514177
4.646465,4.0,-0.011613127,0.0033260006,-9.174247,2.2854636,-11.194257,0.012080025
4.6969695,0.04040404,0.00077613443,0.0002276972,1.6030688,-3.7981787,1.0822095,0.0008088453
4.6969695,0.08080808,0.00081603974,0.00021603703,1.0496699,-4.5843797,1.9336886,0.0008441521
4.6969695,0.121212125,0.00086129457,0.0002031289,0.53459233,-5.297449,2.7542624,0.00088492356
4.6969695,0.16161616,0.0009115413,0.00018902123,0.05909057,-5.936143,3.5422964,0.00093093317
4.6969695,0.2020202,0.0009663515,0.00017394125,-0.37550446,-6.4992766,4.296299,0.0009818813
4.6969695,0.24242425,0.0010254979,0.00015802123,-0.76837826,-6.985749,5.0151362,0.0010376014
4.6969695,0.28282827,0.0010884553,0.00014137477,-1.1183928,-7.394841,5.697817,0.0010975982
4.6969695,0.32323232,0.0011548363,0.00012414902,-1.4259009,-7.726998,6.3436766,0.0011614903
4.6969695,0.36363637,0.0012243912,0.00010650046,-1.6905732,-7.9818926,6.9522786,0.0012290142
4.6969695,0.4040404,0.0012965649,8.862652e-05,-1.9127412,-8.159898,7.5236745,0.0012995905
4.6969695,0.44444445,0.0013710372,7.059798e-05,-2.0932937,-8.262285,8.057916,0.0013728536
4.6969695,0.4848485,0.0014473014,5.253963e-05,-2.233383,-8.290224,8.555442,0.0014482546
4.6969695,0.5252525,0.0015250742,3.470294e-05,-2.3342433,-8.245287,9.017197,0.0015254691
4.6969695,0.56565654,0.0016038083,1.7065555e-05,-2.3986113,-8.13018,9.444122,0.001603899
4.6969695,0.6060606,0.0016832016,-1.2665987e-07,-2.427871,-7.946974,9.837693,0.0016832016
4.6969695,0.64646465,0.0017628148,-1.6719103e-05,-2.425179,-7.6989226,10.199221,0.0017628941
4.6969695,0.68686867,0.0018423758,-3.2670796e-05,-2.393319,-7.389445,10.530805,0.0018426655
4.6969695,0.72727275,0.0019213185,-4.7873706e-05,-2.3358514,-7.0224633,10.834184,0.0019219148
4.6969695,0.7676768,0.0019993968,-6.2147155e-05,-2.2559783,-6.6013436,11.111826,0.0020003624
4.6969695,0.8080808,0.0020760782,-7.5463206e-05,-2.1581485,-6.130988,11.365943,0.0020774493
4.6969695,0.8484849,0.002151277,-8.7695196e-05,-2.0455844,-5.6156783,11.599248,0.0021530637
4.6969695,0.8888889,0.0022244975,-9.8707154e-05,-1.9231169,-5.06017,11.814297,0.0022266863
4.6969695,0.9292929,0.0022954382,-0.0001084283,-1.7949821,-4.4696426,12.013751,0.0022979977
4.6969695,0.969697,0.0023638047,-0.00011680648,-1.6657815,-3.8490758,12.200628,0.002366689
4.6969695,1.010101,0.0024293289,-0.00012378767,-1.5396787,-3.203033,12.377529,0.0024324807
4.6969695,1.050505,0.0024917126,-0.00012923591,-1.4217017,-2.5372918,12.547605,0.0024950618
4.6969695,1.0909091,0.0025506876,-0.00013320707,-1.3160275,-1.8561451,12.713246,0.0025541636
4.6969695,1.1313131,0.0026060492,-0.00013549812,-1.2268784,-1.1648101,12.877483,0.0026095693
4.6969695,1.1717172,0.0026576258,-0.00013632327,-1.1588141,-0.46841863,13.042832,0.00266112
4.6969695,1.2121212,0.0027050488,-0.00013539009,-1.1159743,0.22913636,13.212008,0.0027084348
4.6969695,1.2525252,0.0027482547,-0.00013280287,-1.1020713,0.9237157,13.38713,0.0027514615
4.6969695,1.2929293,0.0027870312,-0.00012856722,-1.1209701,1.6107,13.570622,0.002789995
4.6969695,1.3333334,0.0028211959,-0.0001225546,-1.1755773,2.287892,13.764452,0.0028238567
4.6969695,1.3737373,0.002850689,-0.00011487305,-1.2692503,2.9508746,13.97029,0.0028530026
4.6969695,1.4141414,0.0028752573,-0.00010547228,-1.4038607,3.5983844,14.189885,0.002877191
4.6969695,1.4545455,0.0028948188,-9.4257295e-05,-1.5820973,4.228426,14.424517,0.002896353
4.6969695,1.4949495,0.0029092692,-8.139573e-05,-1.805765,4.8385363,14.675146,0.0029104077
4.6969695,1.5353535,0.0029184446,-6.680004e-05,-2.0754561,5.429107,14.9425125,0.002919209
4.6969695,1.5757576,0.0029223263,-5.041994e-05,-2.392463,5.9989543,15.2272,0.0029227613
4.6969695,1.6161616,0.0029207207,-3.232807e-05,-2.7569158,6.5487127,15.528944,0.0029208995
4.6969695,1.6565657,0.00291368,-1.2444332e-05,-3.167969,7.0799737,15.848039,0.0029137065
4.6969695,1.6969697,0.0029009543,9.059906e-06,-3.6252747,7.5939145,16.183577,0.0029009685
4.6969695,1.7373737,0.0028826557,3.2331795e-05,-4.1268034,8.093046,16.535103,0.0028828369
4.6969695,1.7777778,0.0028585494,5.7401136e-05,-4.671108,8.580233,16.901047,0.0028591256
4.6969695,1.8181819,0.0028286912,8.42195e-05,-5.255332,9.058801,17.280209,0.0028299447
4.6969695,1.8585858,0.0027927794,0.00011280924,-5.876583,9.532798,17.670357,0.0027950567
4.6969695,1.8989899,0.0027509779,0.00014328212,-6.531597,10.006294,18.069817,0.0027547067
4.6969695,1.939394,0.0027031153,0.0001756344,-7.2156644,10.484859,18.476053,0.0027088153
4.6969695,1.979798,0.002648946,0.00020989403,-7.924896,10.973221,18.886091,0.0026572486
4.6969695,2.020202,0.0025885217,0.00024610758,-8.654078,11.476923,19.297266,0.002600195
4.6969695,2.060606,0.0025217682,0.00028434582,-9.39837,12.00055,19.706274,0.0025377485
4.6969695,2.10101,0.0024485178,0.00032472983,-10.152435,12.550373,20.109789,0.0024699573
4.6969695,2.1414142,0.002368603,0.00036726706,-10.910245,13.131564,20.504122,0.0023969074
4.6969695,2.1818182,0.0022820346,0.00041210093,-11.66635,13.748504,20.885742,0.0023189457
4.6969695,2.2222223,0.0021885224,0.00045916624,-12.414249,14.407258,21.250736,0.0022361716
4.6969695,2.2626262,0.0020880662,0.00050878525,-13.14851,15.111483,21.595015,0.0021491586
4.6969695,2.3030303,0.0019803531,0.0005609207,-13.863107,15.864554,21.914967,0.002058259
4.6969695,2.3434343,0.0018653683,0.00061571226,-14.552566,16.66979,22.206526,0.0019643574
4.6969695,2.3838384,0.0017427392,0.00067325495,-15.211039,17.529215,22.465746,0.0018682645
4.6969695,2.4242425,0.0016124062,0.0007336326,-15.833767,18.443165,22.68902,0.0017714599
4.6969695,2.4646466,0.0014741905,0.00079696067,-16.415916,19.411688,22.872643,0.0016758234
4.6969695,2.5050504,0.0013278313,0.0008633118,-16.953093,20.433521,23.01308,0.0015838066
4.6969695,2.5454545,0.0011731125,0.00093278196,-17.441647,21.50579,23.10706,0.0014987579
4.6969695,2.5858586,0.0010098554,0.0010054177,-17.878809,22.623247,23.151918,0.0014250168
4.6969695,2.6262627,0.0008376911,0.0010812655,-18.26182,23.781168,23.14459,0.0013677943
4.6969695,2.6666667,0.00065653026,0.001160346,-18.5891,24.971588,23.083258,0.0013332047
4.6969695,2.7070708,0.00046608597,0.0012427662,-18.859398,26.185732,22.965387,0.001327292
4.6969695,2.7474747,0.0002660565,0.0013283473,-19.07356,27.411306,22.789831,0.0013547296
4.6969695,2.7878788,5.6233257e-05,0.0014171638,-19.23146,28.637814,22.555197,0.0014182789
4.6969695,2.8282828,-0.00016350299,0.0015091561,-19.33505,29.850992,22.260965,0.0015179872
4.6969695,2.868687,-0.00039356947,0.0016040783,-19.386374,31.035006,21.906479,0.0016516551
4.6969695,2.909091,-0.0006340854,0.0017019855,-19.389284,32.172977,21.49211,0.001816265
4.6969695,2.9494948,-0.0008853562,0.001802518,-19.346798,33.247993,21.018112,0.0020082148
4.6969695,2.989899,-0.0011475235,0.0019054767,-19.263952,34.24068,20.485655,0.0022243317
4.6969695,3.030303,-0.0014208741,0.002010744,-19.14598,35.131016,19.895947,0.002462108
4.6969695,3.070707,-0.0017056316,0.0021178732,-18.998192,35.89987,19.250175,0.002719295
4.6969695,3.1111112,-0.0020018704,0.002226499,-18.826601,36.526814,18.550674,0.0029941245
4.6969695,3.1515152,-0.0023097992,0.0023363195,-18.63794,36.990948,17.798891,0.0032853556
4.6969695,3.191919,-0.0026296675,0.002446888,-18.43689,37.27444,16.99728,0.0035919927
4.6969695,3.2323232,-0.0029615276,0.0025575925,-18.230663,37.35741,16.14815,0.0039130454
4.6969695,3.2727273,-0.0033055358,0.0026680883,-18.022703,37.224964,15.25248,0.004247972
4.6969695,3.3131313,-0.003661625,0.0027778028,-17.81966,36.86007,14.31369,0.0045960513
4.6969695,3.3535354,-0.004030183,0.0028860979,-17.623825,36.251434,13.331869,0.0049570086
4.6969695,3.3939395,-0.0044110715,0.0029923618,-17.437792,35.38901,12.308417,0.00533027
4.6969695,3.4343433,-0.004804272,0.0030959845,-17.261154,34.267914,11.243953,0.0057154307
4.6969695,3.4747474,-0.0052101016,0.0031963885,-17.092546,32.88534,10.137149,0.006112451
4.6969695,3.5151515,-0.005628273,0.0032929275,-16.927689,31.24498,8.987061,0.0065207994
4.6969695,3.5555556,-0.006059032,0.0033849087,-16.759941,29.353205,7.790587,0.006940423
4.6969695,3.5959597,-0.0065023154,0.0034718057,-16.577024,27.225945,6.5431337,0.007371129
4.6969695,3.6363637,-0.0069580637,0.0035530403,-16.364655,24.883093,5.238797,0.00781273
4.6969695,3.6767676,-0.007426437,0.0036279876,-16.102743,22.351404,3.8693497,0.008265244
4.6969695,3.7171717,-0.007907387,0.0036962759,-15.768477,19.664263,2.4250567,0.008728644
4.6969695,3.7575758,-0.008401118,0.003757378,-15.330363,16.865091,0.89287686,0.00920308
4.6969695,3.7979798,-0.008907683,0.0038110502,-14.752179,14.003291,-0.7426635,0.009688701
4.6969695,3.838384,-0.009427134,0.003856982,-13.990635,11.137881,-2.4997144,0.010185636
4.6969695,3.878788,-0.009959932,0.0038950592,-12.995802,8.334012,-4.3997736,0.010694472
4.6969695,3.9191918,-0.010506276,0.0039252024,-11.708498,5.667617,-6.468089,0.011215572
4.6969695,3.959596,-0.011066616,0.003947474,-10.061147,3.223656,-8.732955,0.011749576
4.6969695,4.0,-0.011641685,0.0039622094,-7.977564,1.0933014,-11.228129,0.012297477
4.7474747,0.04040404,0.00078585,0.00018953346,1.5047501,-3.6385355,0.6754961,0.00080838305
4.7474747,0.08080808,0.00082501397,0.00017841533,0.942558,-4.3675137,1.5267648,0.00084408536
4.7474747,0.121212125,0.0008695461,0.0001661051,0.41825625,-5.022455,2.3470416,0.0008852691
4.7474747,0.16161616,0.00091912225,0.00015295856,-0.0665534,-5.6013675,3.1346018,0.00093176286
4.7474747,0.2020202,0.0009733178,0.00013889745,-0.51011336,-6.1029463,3.8879921,0.0009831785
4.7474747,0.24242425,0.001031749,0.00012417883,-0.9121387,-6.5265923,4.6055956,0.001039195
4.7474747,0.28282827,0.0010941178,0.00010887906,-1.2707989,-6.8709536,5.2866383,0.0010995219
4.7474747,0.32323232,0.001160007,9.315275e-05,-1.585892,-7.1361275,5.9302998,0.0011637412
4.7474747,0.36363637,0.0012289733,7.7230856e-05,-1.8577564,-7.3219833,6.536015,0.0012313975
4.7474747,0.4040404,0.0013006292,6.125122e-05,-2.0858774,-7.428654,7.1036234,0.0013020707
4.7474747,0.44444445,0.0013745911,4.5316294e-05,-2.271213,-7.4569316,7.633249,0.001375338
4.7474747,0.4848485,0.0014504641,2.9508024e-05,-2.4144812,-7.408155,8.125184,0.0014507641
4.7474747,0.5252525,0.0015278123,1.4066696e-05,-2.5170035,-7.2837806,8.580163,0.0015278771
4.7474747,0.56565654,0.0016062409,-9.2573464e-07,-2.5809696,-7.0863557,8.999061,0.0016062412
4.7474747,0.6060606,0.0016851611,-1.5191734e-05,-2.6086814,-6.818053,9.383018,0.0016852296
4.7474747,0.64646465,0.0017644651,-2.8742477e-05,-2.6017165,-6.4812813,9.733682,0.0017646992
4.7474747,0.68686867,0.0018436238,-4.1453168e-05,-2.5634227,-6.0800085,10.052732,0.0018440898
4.7474747,0.72727275,0.0019221827,-5.317107e-05,-2.4970844,-5.617592,10.3420515,0.001922918
4.7474747,0.7676768,0.0019998401,-6.372668e-05,-2.4058273,-5.097796,10.603885,0.0020008553
4.7474747,0.8080808,0.002076283,-7.301755e-05,-2.2936468,-4.5252514,10.840393,0.0020775667
4.7474747,0.8484849,0.002151098,-8.1019476e-05,-2.1643136,-3.90409,11.054439,0.0021526234
4.7474747,0.8888889,0.0022238754,-8.766353e-05,-2.0220926,-3.239565,11.248203,0.0022256025
4.7474747,0.9292929,0.0022944175,-9.264052e-05,-1.8714609,-2.5365102,11.42455,0.0022962869
4.7474747,0.969697,0.0023623444,-9.61218e-05,-1.7165196,-1.799892,11.586442,0.0023642993
4.7474747,1.010101,0.0024273358,-9.783171e-05,-1.561824,-1.0345492,11.736407,0.0024293065
4.7474747,1.050505,0.0024891943,-9.786524e-05,-1.4119396,-0.24609219,11.877667,0.0024911175
4.7474747,1.0909091,0.0025475211,-9.602308e-05,-1.2717428,0.56007355,12.012761,0.0025493302
4.7474747,1.1313131,0.0026022978,-9.24319e-05,-1.1447159,1.3797383,12.144646,0.0026039388
4.7474747,1.1717172,0.0026530735,-8.6877495e-05,-1.036136,2.2068486,12.275846,0.0026544956
4.7474747,1.2121212,0.002699744,-7.9391524e-05,-0.9498554,3.037666,12.409053,0.002700911
4.7474747,1.2525252,0.0027420707,-6.99833e-05,-0.8895815,3.8669937,12.546843,0.0027429636
4.7474747,1.2929293,0.0027798228,-5.8639795e-05,-0.8591992,4.691171,12.691419,0.0027804412
4.7474747,1.3333334,0.0028129667,-4.5198947e-05,-0.8620811,5.5063267,12.845015,0.0028133297
4.7474747,1.3737373,0.0028412826,-2.9720366e-05,-0.9014492,6.308717,13.009256,0.002841438
4.7474747,1.4141414,0.0028645508,-1.2371689e-05,-0.9799061,7.095767,13.186285,0.0028645776
4.7474747,1.4545455,0.0028827973,7.053837e-06,-1.0998868,7.8644676,13.377211,0.002882806
4.7474747,1.4949495,0.0028956942,2.855435e-05,-1.2627084,8.613856,13.583318,0.002895835
4.7474747,1.5353535,0.0029033013,5.1928684e-05,-1.4707562,9.341485,13.805476,0.0029037658
4.7474747,1.5757576,0.0029054098,7.740781e-05,-1.7241081,10.047591,14.044295,0.0029064408
4.7474747,1.6161616,0.0029020794,0.000104784966,-2.023558,10.731072,14.300384,0.0029039707
4.7474747,1.6565657,0.002893079,0.00013425387,-2.3689594,11.393278,14.5732765,0.0028961925
4.7474747,1.6969697,0.0028783157,0.00016569346,-2.759621,12.034998,14.862772,0.0028830809
4.7474747,1.7373737,0.002857782,0.00019907579,-3.1941128,12.657855,15.168342,0.0028647075
4.7474747,1.7777778,0.0028314628,0.00023440458,-3.6715162,13.2635355,15.488979,0.0028411488
4.7474747,1.8181819,0.0027991123,0.00027177483,-4.1886444,13.856029,15.823423,0.0028122752
4.7474747,1.8585858,0.0027608648,0.00031115673,-4.7434254,14.43768,16.169857,0.0027783436
4.7474747,1.8989899,0.002716381,0.00035248697,-5.3319793,15.012888,16.526726,0.0027391557
4.7474747,1.939394,0.0026656836,0.00039591826,-5.9510007,15.585383,16.891136,0.002694925
4.7474747,1.979798,0.002608817,0.00044145063,-6.595798,16.161142,17.261286,0.0026459035
4.7474747,2.020202,0.0025456324,0.00048903376,-7.26263,16.742758,17.63409,0.0025921802
4.7474747,2.060606,0.002475869,0.0005387813,-7.945689,17.337275,18.006496,0.0025338137
4.7474747,2.10101,0.002399657,0.00059074536,-8.640032,17.948381,18.375374,0.002471302
4.7474747,2.1414142,0.0023167916,0.0006449707,-9.339933,18.582668,18.737295,0.002404893
4.7474747,2.1818182,0.0022271313,0.0007014796,-10.04025,19.243105,19.088789,0.002334992
4.7474747,2.2222223,0.0021305494,0.0007604603,-10.734555,19.935884,19.425886,0.0022621981
4.7474747,2.2626262,0.002026908,0.00082183816,-11.417526,20.663963,19.745043,0.002187184
4.7474747,2.3030303,0.0019161291,0.0008857101,-12.0833845,21.431137,20.04217,0.0021109318
4.7474747,2.3434343,0.0017979257,0.00095232204,-12.725758,22.241568,20.313637,0.002034565
4.7474747,2.3838384,0.0016722977,0.0010215715,-13.3394,23.096182,20.555487,0.0019596396
4.7474747,2.4242425,0.0015389435,0.001093585,-13.920264,23.99588,20.764263,0.0018879288
4.7474747,2.4646466,0.0013977848,0.0011683702,-14.461954,24.941833,20.935883,0.0018217824
4.7474747,2.5050504,0.001248464,0.0012462912,-14.960767,25.932283,21.067183,0.001764059
4.7474747,2.5454545,0.0010909028,0.0013270453,-15.4128895,26.964918,21.154835,0.0017178819
4.7474747,2.5858586,0.00092493,0.0014108773,-15.815012,28.035849,21.1959,0.0016870301
4.7474747,2.6262627,0.0007501282,0.0014976952,-16.164583,29.13945,21.187574,0.0016750472
4.7474747,2.6666667,0.0005665347,0.0015875939,-16.45927,30.269718,21.127565,0.0016856501
4.7474747,2.7070708,0.0003737919,0.001680661,-16.698675,31.417093,21.013554,0.0017217264
4.7474747,2.7474747,0.00017164275,0.0017767157,-16.881721,32.572536,20.84414,0.0017849874
4.7474747,2.7878788,-4.0121377e-05,0.0018758196,-17.009222,33.724365,20.617785,0.0018762486
4.7474747,2.8282828,-0.00026175752,0.001977777,-17.082426,34.858486,20.333687,0.0019950236
4.7474747,2.868687,-0.0004934557,0.0020825565,-17.103699,35.961143,19.99147,0.0021402196
4.7474747,2.909091,-0.0007353239,0.002189938,-17.075119,37.016537,19.591156,0.002310093
4.7474747,2.9494948,-0.0009877682,0.002299782,-17.001112,38.006786,19.132841,0.0025029348
4.7474747,2.989899,-0.001250945,0.0024118796,-16.886404,38.91327,18.617723,0.0027169886
4.7474747,3.030303,-0.0015250258,0.0025259908,-16.735355,39.717216,18.046505,0.0029506497
4.7474747,3.070707,-0.0018102154,0.0026416713,-16.553303,40.399662,17.420723,0.0032023909
4.7474747,3.1111112,-0.0021066442,0.0027586855,-16.346643,40.9397,16.742657,0.0034710655
4.7474747,3.1515152,-0.0024144985,0.0028765826,-16.121586,41.316704,16.013826,0.0037556
4.7474747,3.191919,-0.0027340464,0.0029949322,-15.883977,41.512638,15.236322,0.004055198
4.7474747,3.2323232,-0.0030651875,0.0031132856,-15.6404,41.507465,14.413049,0.0043689725
4.7474747,3.2727273,-0.003408216,0.0032311203,-15.396257,41.28353,13.545398,0.0046963897
4.7474747,3.3131313,-0.0037632138,0.0033478364,-15.157152,40.824677,12.635521,0.005036843
4.7474747,3.3535354,-0.0041301735,0.0034628697,-14.926977,40.117893,11.685797,0.005389787
4.7474747,3.3939395,-0.0045092665,0.0035756687,-14.709519,39.150517,10.696861,0.0057549016
4.7474747,3.4343433,-0.0049003996,0.0036854818,-14.505975,37.915592,9.67025,0.006131614
4.7474747,3.4747474,-0.005303655,0.0037918026,-14.315542,36.4092,8.605539,0.0065197027
4.7474747,3.5151515,-0.005719073,0.0038938532,-14.136553,34.629993,7.502072,0.006918807
4.7474747,3.5555556,-0.006146718,0.003991022,-13.963803,32.5835,6.35791,0.007328738
4.7474747,3.5959597,-0.0065865368,0.0040827002,-13.786872,30.281294,5.1692758,0.007749252
4.7474747,3.6363637,-0.007038515,0.004168231,-13.596079,27.737806,3.9322464,0.008180149
4.7474747,3.6767676,-0.007502597,0.004247089,-13.374313,24.97662,2.6396549,0.008621295
4.7474747,3.7171717,-0.007978965,0.00431861,-13.10015,22.028276,1.2828395,0.009072721
4.7474747,3.7575758,-0.008467663,0.0043824557,-12.747268,18.928543,-0.14948264,0.0095345285
4.7474747,3.7979798,-0.008968521,0.0044380855,-12.284118,15.722895,-1.6698632,0.010006546
4.7474747,3.838384,-0.009481922,0.004485219,-11.671005,12.465779,-3.2954473,0.010489234
4.7474747,3.878788,-0.0100079365,0.0045236303,-10.863744,9.216773,-5.045025,0.010982806
4.7474747,3.9191918,-0.010546822,0.004553197,-9.808408,6.047218,-6.941027,0.011487692
4.7474747,3.959596,-0.011099048,0.0045739114,-8.443262,3.0354311,-9.010396,0.012004563
4.7474747,4.0,-0.011664987,0.00458588,-6.6984973,0.26902056,-11.282482,0.012534042
4.79798,0.04040404,0.0007949695,0.00014861673,1.4003575,-3.4909825,0.25231978,0.00080874184
4.79798,0.08080808,0.0008333288,0.00013803504,0.82970726,-4.1646667,1.1027552,0.00084468373
4.79798,0.121212125,0.00087701157,0.00012642145,0.29684207,-4.7627625,1.9221276,0.00088607654
4.79798,0.16161616,0.0009258576,0.000114087015,-0.19655748,-5.2837663,2.7086294,0.00093286013
4.79798,0.2020202,0.0009792931,0.00010097399,-0.64892477,-5.726117,3.4605885,0.000984485
4.79798,0.24242425,0.0010370389,8.739531e-05,-1.0589151,-6.088685,4.17659,0.0010407149
4.79798,0.28282827,0.001098726,7.346645e-05,-1.4252223,-6.3702517,4.8556376,0.0011011794
4.79798,0.32323232,0.0011639073,5.9250742e-05,-1.7476578,-6.5706577,5.496598,0.0011654145
4.79798,0.36363637,0.0012322143,4.4986606e-05,-2.025469,-6.689674,6.099025,0.0012330352
4.79798,0.4040404,0.0013032854,3.0783936e-05,-2.2587323,-6.727178,6.662565,0.0013036489
4.79798,0.44444445,0.0013766699,1.6754493e-05,-2.4479303,-6.6840234,7.1871543,0.0013767718
4.79798,0.4848485,0.0014519729,3.164634e-06,-2.5935276,-6.561161,7.6731167,0.0014519764
4.79798,0.5252525,0.0015287735,-9.905547e-06,-2.6970143,-6.360165,8.120864,0.0015288056
4.79798,0.56565654,0.0016066432,-2.2254884e-05,-2.7598674,-6.08279,8.531363,0.0016067973
4.79798,0.6060606,0.0016851611,-3.38573e-05,-2.7841647,-5.7313385,8.905729,0.0016855013
4.79798,0.64646465,0.001763951,-4.447624e-05,-2.7718434,-5.3087897,9.245198,0.0017645117
4.79798,0.68686867,0.0018426329,-5.403906e-05,-2.7260573,-4.818322,9.551462,0.0018434251
4.79798,0.72727275,0.0019208118,-6.2322244e-05,-2.6493409,-4.263017,9.826518,0.0019218225
4.79798,0.7676768,0.0019980036,-6.9286674e-05,-2.54572,-3.647334,10.072282,0.0019992045
4.79798,0.8080808,0.002073966,-7.4815005e-05,-2.418069,-2.9752674,10.29116,0.002075315
4.79798,0.8484849,0.0021483786,-7.883459e-05,-2.2706041,-2.2513871,10.485358,0.0021498248
4.79798,0.8888889,0.0022206642,-8.102879e-05,-2.1075404,-1.4804163,10.657754,0.002222142
4.79798,0.9292929,0.0022906847,-8.1589445e-05,-1.9326499,-0.6672109,10.810799,0.0022921374
4.79798,0.969697,0.0023580454,-8.019246e-05,-1.7505498,0.18314907,10.9474325,0.0023594087
4.79798,1.010101,0.002422545,-7.701665e-05,-1.5657867,1.0648621,11.070509,0.002423769
4.79798,1.050505,0.0024837442,-7.17137e-05,-1.3829938,1.9732867,11.182572,0.0024847793
4.79798,1.0909091,0.002541557,-6.4400956e-05,-1.2064806,2.9023387,11.286855,0.0025423728
4.79798,1.1313131,0.0025954805,-5.4920092e-05,-1.0404247,3.847956,11.385986,0.0025960614
4.79798,1.1717172,0.0026454963,-4.335679e-05,-0.8896581,4.803754,11.48272,0.0026458516
4.79798,1.2121212,0.002691336,-2.9530376e-05,-0.7580396,5.7656374,11.579894,0.002691498
4.79798,1.2525252,0.0027326979,-1.3422221e-05,-0.64967555,6.7287774,11.67989,0.002732731
4.79798,1.2929293,0.0027695224,4.8149377e-06,-0.5686085,7.6875553,11.785283,0.0027695266
4.79798,1.3333334,0.0028015822,2.5440007e-05,-0.518163,8.639428,11.898123,0.0028016977
4.79798,1.3737373,0.002828654,4.8290938e-05,-0.5017266,9.579442,12.020526,0.0028290662
4.79798,1.4141414,0.002850663,7.34888e-05,-0.5219611,10.5044775,12.154251,0.00285161
4.79798,1.4545455,0.0028675608,0.0001009088,-0.581419,11.412073,12.301198,0.0028693357
4.79798,1.4949495,0.0028789751,0.00013060495,-0.6824077,12.299108,12.462305,0.002881936
4.79798,1.5353535,0.0028849654,0.0001625903,-0.82624876,13.164444,12.63881,0.0028895433
4.79798,1.5757576,0.0028854348,0.00019686669,-1.0143026,14.006274,12.83147,0.0028921429
4.79798,1.6161616,0.0028802715,0.00023341738,-1.2473471,14.823632,13.040999,0.002889714
4.79798,1.6565657,0.0028693862,0.00027217902,-1.5248599,15.617327,13.267232,0.0028822662
4.79798,1.6969697,0.0028526075,0.0003131274,-1.8475901,16.386671,13.510177,0.002869742
4.79798,1.7373737,0.002829954,0.00035640225,-2.2137005,17.133799,13.769457,0.0028523083
4.79798,1.7777778,0.0028013512,0.00040181726,-2.6216323,17.860071,14.0441475,0.0028300222
4.79798,1.8181819,0.0027667359,0.00044942647,-3.0702136,18.567188,14.333352,0.0028030006
4.79798,1.8585858,0.0027259253,0.00049928203,-3.556646,19.258299,14.635398,0.0027712726
4.79798,1.8989899,0.0026789345,0.00055134855,-4.0773215,19.936975,14.948686,0.0027350823
4.79798,1.939394,0.0026257224,0.00060554035,-4.6299076,20.60581,15.271492,0.0026946424
4.79798,1.979798,0.00256617,0.0006620977,-5.209339,21.270388,15.601021,0.0026502078
4.79798,2.020202,0.0025000907,0.0007208269,-5.812004,21.933792,15.934815,0.002601931
4.79798,2.060606,0.0024276115,0.0007818639,-6.432596,22.601038,16.270288,0.0025504134
4.79798,2.10101,0.0023485273,0.00084517896,-7.0664873,23.276989,16.60436,0.0024959785
4.79798,2.1414142,0.0022627078,0.000910813,-7.7084174,23.96567,16.933363,0.0024391448
4.79798,2.1818182,0.0021701194,0.0009788712,-8.352289,24.672556,17.25438,0.0023806738
4.79798,2.2222223,0.0020705052,0.0010493193,-8.993217,25.401337,17.563536,0.00232122
4.79798,2.2626262,0.001963906,0.0011222903,-9.624822,26.156065,17.857334,0.00226196
4.79798,2.3030303,0.0018500648,0.0011977963,-10.241926,26.940634,18.131775,0.0022039637
4.79798,2.3434343,0.0017290004,0.0012758765,-10.838083,27.758253,18.383368,0.002148791
4.79798,2.3838384,0.0016004406,0.001356652,-11.408343,28.610394,18.60845,0.0020980742
4.79798,2.4242425,0.0014642142,0.0014400966,-11.947573,29.498482,18.803024,0.0020537288
4.79798,2.4646466,0.0013201647,0.001526393,-12.450657,30.423504,18.963526,0.0020180957
4.79798,2.5050504,0.0011681132,0.0016154591,-12.913602,31.383694,19.086584,0.0019935388
4.79798,2.5454545,0.0010079294,0.0017073769,-13.331365,32.378326,19.16895,0.0019826894
4.79798,2.5858586,0.0008393638,0.0018021893,-13.701432,33.402805,19.207458,0.001988069
4.79798,2.6262627,0.0006621443,0.001899967,-14.020354,34.45336,19.199306,0.0020120412
4.79798,2.6666667,0.00047622249,0.0020005545,-14.286247,35.52342,19.142231,0.0020564548
4.79798,2.7070708,0.0002812706,0.00210407,-14.497754,36.605106,19.034025,0.0021227868
4.79798,2.7474747,7.7124685e-05,0.0022105053,-14.654313,37.689213,18.872541,0.0022118504
4.79798,2.7878788,-0.00013644621,0.002319578,-14.756222,38.764713,18.656736,0.0023235877
4.79798,2.8282828,-0.00035965815,0.0024314653,-14.803655,39.819996,18.385553,0.0024579214
4.79798,2.868687,-0.0005927272,0.0025458708,-14.799723,40.839546,18.058395,0.0026139594
4.79798,2.909091,-0.0008358173,0.0026626745,-14.745938,41.809723,17.6747,0.0027907752
4.79798,2.9494948,-0.0010893084,0.0027817767,-14.646184,42.713657,17.23532,0.002987453
4.79798,2.989899,-0.0013531819,0.0029027546,-14.504843,43.53267,16.740509,0.0032026686
4.79798,3.030303,-0.0016277134,0.0030255243,-14.326863,44.2486,16.19149,0.0034355856
4.79798,3.070707,-0.0019131526,0.003149731,-14.116608,44.842957,15.589306,0.0036852353
4.79798,3.1111112,-0.0022095963,0.0032749493,-13.881199,45.29443,14.936305,0.0039506466
4.79798,3.1515152,-0.0025170706,0.0034007663,-13.62658,45.583378,14.234071,0.0042309402
4.79798,3.191919,-0.0028360449,0.0035268087,-13.358717,45.690903,13.484855,0.0045256526
4.79798,3.2323232,-0.0031664297,0.0036526835,-13.084342,45.597084,12.690696,0.0048340843
4.79798,3.2727273,-0.0035083033,0.003777681,-12.808933,45.283875,11.854145,0.005155489
4.79798,3.3131313,-0.0038617477,0.0039013634,-12.539768,44.733593,10.977773,0.00548942
4.79798,3.3535354,-0.004227072,0.0040231273,-12.280132,43.932125,10.062614,0.005835554
4.79798,3.3939395,-0.004603993,0.0041423216,-12.035933,42.865086,9.112063,0.0061931885
4.79798,3.4343433,-0.0049928203,0.0042582937,-11.808204,41.524403,8.125729,0.006562113
4.79798,3.4747474,-0.0053934976,0.004370493,-11.598463,39.903465,7.1048937,0.0069419756
4.79798,3.5151515,-0.0058059394,0.0044780932,-11.406869,37.997795,6.049956,0.0073322747
4.79798,3.5555556,-0.006230224,0.0045805136,-11.228766,35.81127,4.959078,0.007732839
4.79798,3.5959597,-0.006666463,0.0046770843,-11.057943,33.350594,3.8302183,0.008143515
4.79798,3.6363637,-0.007114321,0.0047670323,-10.885583,30.62735,2.6596317,0.00856377
4.79798,3.6767676,-0.007574111,0.00484991,-10.69762,27.661482,1.4419668,0.008993819
4.79798,3.7171717,-0.008045595,0.004924901,-10.476836,24.477213,0.17019562,0.009433253
4.79798,3.7575758,-0.008529045,0.0049916767,-10.199855,21.108448,-1.1654391,0.00988238
4.79798,3.7979798,-0.009024307,0.0050496664,-9.839333,17.593729,-2.5758557,0.010341047
4.79798,3.838384,-0.009531472,0.0050984547,-9.360416,13.982049,-4.0759206,0.010809403
4.79798,3.878788,-0.01005077,0.00513776,-8.7227745,10.3285885,-5.682651,0.011287806
4.79798,3.9191918,-0.010582294,0.005167406,-7.8782134,6.6994677,-7.416292,0.011776546
4.79798,3.959596,-0.011126444,0.0051872144,-6.7712326,3.1675847,-9.300495,0.012276194
4.79798,4.0,-0.011683498,0.0051972196,-5.338135,-0.18606372,-11.362288,0.012787307
4.848485,0.04040404,0.0008036159,0.00010494329,1.2906865,-3.3561928,-0.1869769,0.0008104391
4.848485,0.08080808,0.00084104016,9.486079e-05,0.7121222,-3.9760842,0.6620602,0.0008463729
4.848485,0.121212125,0.00088391826,8.399226e-05,0.1712747,-4.5195417,1.4799579,0.0008878999
4.848485,0.16161616,0.0009317659,7.2456896e-05,-0.33036023,-4.984557,2.264936,0.0009345789
4.848485,0.2020202,0.0009842776,6.03348e-05,-0.7908228,-5.3695855,3.015071,0.0009861251
4.848485,0.24242425,0.0010413341,4.781224e-05,-1.2079706,-5.672956,3.7291846,0.0010424312
4.848485,0.28282827,0.0011020415,3.5140663e-05,-1.5818111,-5.8941793,4.4055543,0.0011026015
4.848485,0.32323232,0.0011665784,2.2307038e-05,-1.9102926,-6.0321484,5.0436497,0.0011667917
4.848485,0.36363637,0.0012341291,9.579584e-06,-2.1934586,-6.0864344,5.6424084,0.0012341662
4.848485,0.4040404,0.0013045184,-2.8796494e-06,-2.430786,-6.0572443,6.201507,0.0013045216
4.848485,0.44444445,0.0013771541,-1.4945865e-05,-2.6230917,-5.9450197,6.7208495,0.0013772353
4.848485,0.4848485,0.0014518537,-2.6419759e-05,-2.7701838,-5.7506,7.200529,0.0014520941
4.848485,0.5252525,0.0015279613,-3.7239864e-05,-2.873542,-5.4753246,7.640978,0.001528415
4.848485,0.56565654,0.0016052537,-4.7177076e-05,-2.9342566,-5.1208434,8.042796,0.0016059468
4.848485,0.6060606,0.0016832016,-5.611591e-05,-2.9540164,-4.6891856,8.40727,0.0016841368
4.848485,0.64646465,0.0017614737,-6.394461e-05,-2.935574,-4.183342,8.735484,0.0017626339
4.848485,0.68686867,0.0018395893,-7.044524e-05,-2.881171,-3.6064057,9.0289955,0.0018409376
4.848485,0.72727275,0.0019171871,-7.5483695e-05,-2.7936785,-2.9617891,9.289451,0.0019186725
4.848485,0.7676768,0.001993876,-7.9046935e-05,-2.6759975,-2.2529142,9.519124,0.0019954422
4.848485,0.8080808,0.0020693429,-8.0877915e-05,-2.5318348,-1.484195,9.719988,0.0020709226
4.848485,0.8484849,0.0021431,-8.09785e-05,-2.3652794,-0.6601007,9.894565,0.0021446294
4.848485,0.8888889,0.002214875,-7.912889e-05,-2.1797624,0.21459727,10.045413,0.0022162881
4.848485,0.9292929,0.0022843666,-7.529929e-05,-1.9799207,1.1348262,10.175041,0.0022856074
4.848485,0.969697,0.0023511723,-6.9448724e-05,-1.7694992,2.0954967,10.286459,0.0023521977
4.848485,1.010101,0.0024150126,-6.126799e-05,-1.5533413,3.0915701,10.382241,0.0024157898
4.848485,1.050505,0.0024755038,-5.0928444e-05,-1.3361876,4.117161,10.465273,0.0024760277
4.848485,1.0909091,0.0025325827,-3.8277358e-05,-1.1220115,5.1670203,10.538488,0.002532872
4.848485,1.1313131,0.002585873,-2.3217872e-05,-0.91537595,6.235785,10.604881,0.002585977
4.848485,1.1717172,0.0026350506,-5.7239085e-06,-0.72082055,7.318439,10.66714,0.0026350569
4.848485,1.2121212,0.00267997,1.4191493e-05,-0.54269165,8.409114,10.728009,0.0026800076
4.848485,1.2525252,0.002720397,3.65898e-05,-0.3850823,9.502815,10.7901,0.002720643
4.848485,1.2929293,0.0027562492,6.153248e-05,-0.25172952,10.595268,10.856006,0.002756936
4.848485,1.3333334,0.0027872138,8.909404e-05,-0.14661404,11.681469,10.927964,0.0027886375
4.848485,1.3737373,0.0028130189,0.00011918694,-0.07262217,12.757941,11.008128,0.0028155427
4.848485,1.4141414,0.0028337725,0.00015179627,-0.03327491,13.819809,11.098577,0.002837835
4.848485,1.4545455,0.002849292,0.00018689409,-0.031045951,14.864371,11.200997,0.002855415
4.848485,1.4949495,0.0028592758,0.00022471137,-0.06809793,15.889,11.316884,0.0028680922
4.848485,1.5353535,0.0028637722,0.00026494265,-0.14643648,16.89076,11.447501,0.0028760016
4.848485,1.5757576,0.002862502,0.00030781887,-0.26728565,17.868498,11.593511,0.002879005
4.848485,1.6161616,0.002855543,0.00035316125,-0.4319845,18.819876,11.756052,0.0028772987
4.848485,1.6565657,0.002842728,0.00040099397,-0.6405893,19.744946,11.93512,0.0028708708
4.848485,1.6969697,0.0028240196,0.0004512258,-0.8933804,20.642834,12.130988,0.0028598413
4.848485,1.7373737,0.0027993359,0.0005040243,-1.1888409,21.515512,12.343621,0.002844349
4.848485,1.7777778,0.0027685426,0.00055928156,-1.5267254,22.362581,12.571982,0.002824469
4.848485,1.8181819,0.0027316138,0.00061684847,-1.9049269,23.18587,12.815282,0.0028003957
4.848485,1.8585858,0.0026884787,0.000676902,-2.3215108,23.988127,13.072418,0.0027723843
4.848485,1.8989899,0.0026390217,0.0007393565,-2.7732933,24.77164,13.342012,0.0027406358
4.848485,1.939394,0.002583336,0.0008041896,-3.257657,25.539137,13.622264,0.0027056138
4.848485,1.979798,0.0025211312,0.0008714292,-3.77053,26.295027,13.910791,0.0026674878
4.848485,2.020202,0.002452474,0.0009409748,-4.308127,27.04181,14.205488,0.002626797
4.848485,2.060606,0.0023771934,0.0010130033,-4.865223,27.785135,14.503395,0.0025840325
4.848485,2.10101,0.0022954233,0.0010874607,-5.438154,28.52775,14.802009,0.002539988
4.848485,2.1414142,0.0022066683,0.0011643507,-6.020754,29.275496,15.098027,0.0024950143
4.848485,2.1818182,0.0021111742,0.0012436006,-6.6085076,30.030676,15.388151,0.0024502242
4.848485,2.2222223,0.0020088144,0.0013254164,-7.1950645,30.79906,15.669219,0.0024066707
4.848485,2.2626262,0.0018992908,0.0014097551,-7.7753654,31.584248,15.937571,0.0023653149
4.848485,2.3030303,0.0017826669,0.0014965897,-8.344271,32.388157,16.18958,0.0023275914
4.848485,2.3434343,0.0016587079,0.0015860535,-8.894368,33.21655,16.421307,0.0022949679
4.848485,2.3838384,0.0015272908,0.0016781967,-9.421977,34.068886,16.62942,0.0022691323
4.848485,2.4242425,0.0013883822,0.0017728955,-9.921131,34.948097,16.810118,0.0022518355
4.848485,2.4646466,0.0012416057,0.001870349,-10.387215,35.85463,16.960047,0.0022449477
4.848485,2.5050504,0.0010869689,0.0019704476,-10.814931,36.787884,17.075455,0.00225037
4.848485,2.5454545,0.00092430785,0.0020733867,-11.201004,37.7456,17.153322,0.002270083
4.848485,2.5858586,0.00075327605,0.0021790676,-11.541026,38.72614,17.190306,0.002305593
4.848485,2.6262627,0.0005738586,0.0022875722,-11.832384,39.724876,17.183647,0.0023584529
4.848485,2.6666667,0.000385765,0.0023987126,-12.0728,40.735893,17.130917,0.0024295342
4.848485,2.7070708,0.00018882006,0.0025125407,-12.260397,41.751774,17.029781,0.0025196257
4.848485,2.7474747,-1.7162412e-05,0.0026291609,-12.393964,42.765602,16.878206,0.002629217
4.848485,2.7878788,-0.0002323538,0.0027482705,-12.474079,43.76515,16.674986,0.0027580753
4.848485,2.8282828,-0.000457,0.0028698696,-12.501088,44.740288,16.41863,0.0029060282
4.848485,2.868687,-0.0006913282,0.002993768,-12.476478,45.67685,16.108622,0.003072553
4.848485,2.909091,-0.00093547255,0.0031199306,-12.402792,46.561573,15.744595,0.0032571575
4.848485,2.9494948,-0.0011897124,0.0032480173,-12.283093,47.37705,15.326498,0.0034590508
4.848485,2.989899,-0.0014541596,0.0033779116,-12.121027,48.1076,14.855043,0.003677617
4.848485,3.030303,-0.0017290711,0.003509216,-11.92135,48.73469,14.331023,0.003912069
4.848485,3.070707,-0.0020144768,0.0036417255,-11.689897,49.2389,13.75599,0.004161764
4.848485,3.1111112,-0.0023105852,0.003775035,-11.4321,49.600838,13.131593,0.0044260244
4.848485,3.1515152,-0.0026176944,0.003908771,-11.153257,49.80206,12.458987,0.00470434
4.848485,3.191919,-0.0029358678,0.004042455,-10.861113,49.821354,11.740913,0.004996075
4.848485,3.2323232,-0.0032651834,0.004175661,-10.561514,49.63948,10.979632,0.005300714
4.848485,3.2727273,-0.0036056861,0.0043078493,-10.2616,49.237003,10.177602,0.0056176987
4.848485,3.3131313,-0.0039575174,0.004438405,-9.96705,48.597702,9.337102,0.005946544
4.848485,3.3535354,-0.004320804,0.004566822,-9.683361,47.70498,8.460484,0.006286908
4.848485,3.3939395,-0.0046955533,0.0046924073,-9.415926,46.544376,7.550123,0.0066382913
4.848485,3.4343433,-0.0050818212,0.004814557,-9.16789,45.10419,6.6067877,0.007000347
4.848485,3.4747474,-0.0054796003,0.0049325386,-8.941829,43.376884,5.6324563,0.0073726494
4.848485,3.5151515,-0.0058888644,0.005045714,-8.738745,41.35643,4.6273103,0.007754866
4.848485,3.5555556,-0.006309677,0.0051534194,-8.55555,39.04323,3.590748,0.008146764
4.848485,3.5959597,-0.006741978,0.0052549113,-8.390009,36.43967,2.521948,0.008548004
4.848485,3.6363637,-0.0071857385,0.0053494526,-8.233244,33.55595,1.4174174,0.008958319
4.848485,3.6767676,-0.0076409616,0.005436453,-8.075377,30.406706,0.27356705,0.009377596
4.848485,3.7171717,-0.0081076175,0.005515308,-7.9004707,27.013845,-0.91570145,0.009805717
4.848485,3.7575758,-0.008585677,0.005585341,-7.6910634,23.40323,-2.1579533,0.010242552
4.848485,3.7979798,-0.009075139,0.0056460146,-7.4208965,19.61308,-3.4634616,0.0106881065
4.848485,3.838384,-0.009576101,0.0056968704,-7.0623913,15.682588,-4.8442993,0.011142533
4.848485,3.878788,-0.010088649,0.0057375766,-6.5774374,11.665178,-6.315721,0.01160606
4.848485,3.9191918,-0.010612905,0.0057678362,-5.9241924,7.6194663,-7.8956347,0.012078977
4.848485,3.959596,-0.011148982,0.00578738,-5.0518966,3.6128418,-9.605253,0.01256159
4.848485,4.0,-0.011697337,0.0057961876,-3.9027061,-0.27803022,-11.4693775,0.013054634
4.8989897,0.04040404,0.00081172213,5.8641657e-05,1.1767154,-3.2342827,-0.6417297,0.0008138376
4.8989897,0.08080808,0.00084811077,4.910119e-05,0.59095126,-3.802179,0.20533177,0.0008495309
4.8989897,0.121212125,0.0008899681,3.8847327e-05,0.042237982,-4.292852,1.021394,0.0008908156
4.8989897,0.16161616,0.00093685463,2.7963892e-05,-0.46692148,-4.7039237,1.8043054,0.0009372719
4.8989897,0.2020202,0.0009885244,1.6735867e-05,-0.93426675,-5.033366,2.5524004,0.0009886661
4.8989897,0.24242425,0.0010445267,5.301088e-06,-1.3591318,-5.2805104,3.26401,0.0010445401
4.8989897,0.28282827,0.0011044629,-6.221235e-06,-1.7387638,-5.4432254,3.9376924,0.0011044804
4.8989897,0.32323232,0.0011680275,-1.7669052e-05,-2.0731354,-5.520915,4.572342,0.0011681612
4.8989897,0.36363637,0.0012348108,-2.8826296e-05,-2.3608437,-5.5132556,5.167291,0.0012351472
4.8989897,0.4040404,0.0013043135,-3.9655715e-05,-2.6016557,-5.4198236,5.7217393,0.0013049162
4.8989897,0.44444445,0.0013762042,-4.9907714e-05,-2.7959573,-5.241292,6.2355766,0.0013771089
4.8989897,0.4848485,0.0014501587,-5.9440732e-05,-2.9437044,-4.9778104,6.7088475,0.0014513764
4.8989897,0.5252525,0.0015255176,-6.809272e-05,-3.0461047,-4.6310163,7.141744,0.0015270365
4.8989897,0.56565654,0.0016020685,-7.567182e-05,-3.1038654,-4.2021966,7.5349684,0.0016038547
4.8989897,0.6060606,0.0016793646,-8.212961e-05,-3.1188734,-3.693464,7.8893595,0.0016813717
4.8989897,0.64646465,0.0017569326,-8.7201595e-05,-3.093076,-3.1072035,8.206128,0.0017590952
4.8989897,0.68686867,0.0018344522,-9.073131e-05,-3.0292182,-2.446987,8.486695,0.0018366945
4.8989897,0.72727275,0.0019114725,-9.279139e-05,-2.9295993,-1.7154727,8.732779,0.0019137234
4.8989897,0.7676768,0.0019875653,-9.303354e-05,-2.7970173,-0.9163161,8.946334,0.0019897413
4.8989897,0.8080808,0.0020624027,-9.135902e-05,-2.6357577,-0.054224633,9.12948,0.0020644253
4.8989897,0.8484849,0.0021355934,-8.769706e-05,-2.448696,0.86703646,9.284358,0.0021373932
4.8989897,0.8888889,0.00220678,-8.1934035e-05,-2.23997,1.842178,9.413652,0.0022083004
4.8989897,0.9292929,0.0022756532,-7.388182e-05,-2.0136483,2.8667092,9.520087,0.002276852
4.8989897,0.969697,0.002341766,-6.3590705e-05,-1.7743865,3.9348729,9.606103,0.002342629
4.8989897,1.010101,0.002404917,-5.086139e-05,-1.5258423,5.041939,9.674705,0.0024054549
4.8989897,1.050505,0.0024647638,-3.5636127e-05,-1.2731429,6.181826,9.728646,0.0024650216
4.8989897,1.0909091,0.002521105,-1.7911196e-05,-1.0204628,7.349201,9.771065,0.0025211687
4.8989897,1.1313131,0.0025735684,2.5108457e-06,-0.7719574,8.539194,9.804715,0.0025735695
4.8989897,1.1717172,0.0026219524,2.5641173e-05,-0.5325988,9.745317,9.832372,0.0026220777
4.8989897,1.2121212,0.0026659667,5.1429495e-05,-0.30672985,10.962315,9.85696,0.0026664627
4.8989897,1.2525252,0.0027054697,8.003786e-05,-0.09855705,12.185269,9.88112,0.0027066534
4.8989897,1.2929293,0.0027401485,0.00011136569,0.08833614,13.408897,9.907452,0.0027424106
4.8989897,1.3333334,0.0027700476,0.0001455918,0.24963781,14.6279125,9.938536,0.002773871
4.8989897,1.3737373,0.0027948283,0.00018255785,0.3822841,15.838346,9.976403,0.0028007843
4.8989897,1.4141414,0.002814237,0.00022241287,0.48266715,17.036028,10.023404,0.0028230122
4.8989897,1.4545455,0.002828382,0.0002650544,0.5482171,18.216557,10.081313,0.0028407741
4.8989897,1.4949495,0.0028368793,0.00031055696,0.57630867,19.377577,10.151657,0.002853827
4.8989897,1.5353535,0.0028397962,0.00035886653,0.5649851,20.515581,10.235957,0.0028623815
4.8989897,1.5757576,0.0028369464,0.00040997192,0.5123211,21.627821,10.335221,0.0028664162
4.8989897,1.6161616,0.002828259,0.00046382286,0.41721544,22.712862,10.450565,0.0028660393
4.8989897,1.6565657,0.0028135963,0.0005204063,0.2792826,23.76946,10.58222,0.002861319
4.8989897,1.6969697,0.0027930066,0.00057976693,0.098401725,24.797155,10.730752,0.0028525456
4.8989897,1.7373737,0.002766244,0.00064181536,-0.12575625,25.79491,10.895915,0.002839724
4.8989897,1.7777778,0.0027333237,0.00070644356,-0.39144427,26.764366,11.077543,0.0028231402
4.8989897,1.8181819,0.0026942194,0.00077380985,-0.6981897,27.705235,11.274837,0.002803141
4.8989897,1.8585858,0.0026487485,0.0008437121,-1.0434613,28.619967,11.486703,0.0027798773
4.8989897,1.8989899,0.0025969706,0.00091628544,-1.425088,29.51003,11.7120695,0.0027538764
4.8989897,1.939394,0.0025387406,0.0009913482,-1.8398747,30.378544,11.949134,0.0027254312
4.8989897,1.979798,0.0024740882,0.0010690298,-2.28496,31.227734,12.196258,0.0026951693
4.8989897,2.020202,0.00240279,0.0011492763,-2.7562995,32.0614,12.451011,0.0026635006
4.8989897,2.060606,0.0023249649,0.001231987,-3.2493694,32.882656,12.711265,0.0026312077
4.8989897,2.10101,0.0022403747,0.0013172757,-3.76016,33.69555,12.973965,0.002598941
4.8989897,2.1414142,0.0021489672,0.0014051069,-4.2831173,34.50439,13.236527,0.0025675641
4.8989897,2.1818182,0.0020508058,0.0014954694,-4.813439,35.312527,13.495823,0.0025381555
4.8989897,2.2222223,0.0019455701,0.0015883604,-5.345973,36.123466,13.748331,0.0025115993
4.8989897,2.2626262,0.0018333346,0.0016838778,-5.8748193,36.941975,13.990954,0.002489289
4.8989897,2.3030303,0.0017140768,0.0017817859,-6.3948445,37.769886,14.2202425,0.0024724118
4.8989897,2.3434343,0.0015873425,0.0018823985,-6.9001617,38.61119,14.432163,0.0024623321
4.8989897,2.3838384,0.0014532804,0.0019855797,-7.3854995,39.467903,14.62362,0.0024605996
4.8989897,2.4242425,0.0013116896,0.0020914152,-7.8455415,40.341602,14.790763,0.0024687138
4.8989897,2.4646466,0.0011624135,0.0021998324,-8.275164,41.232635,14.930252,0.002488065
4.8989897,2.5050504,0.0010052808,0.0023109075,-8.670042,42.14149,15.038403,0.0025200958
4.8989897,2.5454545,0.0008401908,0.002424661,-9.025867,43.065865,15.112322,0.0025661064
4.8989897,2.5858586,0.00066704303,0.0025409218,-9.338687,44.00413,15.148816,0.0026270193
4.8989897,2.6262627,0.0004853271,0.002659956,-9.604786,44.953255,15.144192,0.002703869
4.8989897,2.6666667,0.00029530376,0.002781584,-9.8220825,45.907772,15.096942,0.0027972152
4.8989897,2.7070708,9.656325e-05,0.0029056538,-9.988601,46.860695,15.004252,0.0029072578
4.8989897,2.7474747,-0.00011105463,0.0030322224,-10.103832,47.803627,14.864209,0.0030342555
4.8989897,2.7878788,-0.00032777712,0.0031612413,-10.165583,48.7295,14.6748905,0.0031781888
4.8989897,2.8282828,-0.0005537085,0.0032924265,-10.176271,49.62507,14.435147,0.0033386622
4.8989897,2.868687,-0.00078910217,0.0034257919,-10.135978,50.47927,14.144479,0.0035154987
4.8989897,2.909091,-0.0010341108,0.0035611168,-10.047041,51.277836,13.801989,0.0037082257
4.8989897,2.9494948,-0.001288984,0.0036982168,-9.911785,52.00625,13.407714,0.0039164126
4.8989897,2.989899,-0.0015538149,0.0038368627,-9.73506,52.647137,12.962114,0.0041395477
4.8989897,3.030303,-0.0018287338,0.0039767213,-9.520035,53.184082,12.466144,0.0043770513
4.8989897,3.070707,-0.0021140948,0.0041174367,-9.272349,53.59854,11.920533,0.004628464
4.8989897,3.1111112,-0.0024098344,0.004258801,-8.997701,53.871384,11.327169,0.004893331
4.8989897,3.1515152,-0.002716273,0.004400328,-8.701547,53.98302,10.687472,0.0051711723
4.8989897,3.191919,-0.0030334182,0.0045416076,-8.39109,53.913754,10.003834,0.0054614856
4.8989897,3.2323232,-0.0033615269,0.0046820566,-8.072773,53.643898,9.278444,0.005763811
4.8989897,3.2727273,-0.003700506,0.004821346,-7.753045,53.154926,8.51395,0.0060777566
4.8989897,3.3131313,-0.0040505715,0.0049587945,-7.438808,52.428364,7.712748,0.006402872
4.8989897,3.3535354,-0.0044116676,0.0050937524,-7.1359916,51.44714,6.877185,0.006738629
4.8989897,3.3939395,-0.00478404,0.0052257255,-6.8494215,50.196953,6.009008,0.0070848605
4.8989897,3.4343433,-0.005167488,0.005354029,-6.585313,48.663376,5.111344,0.007441005
4.8989897,3.4747474,-0.0055622086,0.005477949,-6.3457,46.83803,4.1850357,0.007806798
4.8989897,3.5151515,-0.005968176,0.005596759,-6.1325088,44.71246,3.2311378,0.00818186
4.8989897,3.5555556,-0.0063852817,0.005709773,-5.946119,42.28402,2.2501004,0.008565824
4.8989897,3.5959597,-0.006813582,0.0058162995,-5.7837076,39.553516,1.2410321,0.008958473
4.8989897,3.6363637,-0.007252943,0.005915641,-5.6407657,36.52688,0.2023961,0.009359486
4.8989897,3.6767676,-0.0077034794,0.0060069747,-5.5080504,33.215427,-0.8689454,0.009768692
4.8989897,3.7171717,-0.008165091,0.0060897786,-5.374331,29.636198,-1.9779787,0.0101859765
4.8989897,3.7575758,-0.008637693,0.006163383,-5.223166,25.81289,-3.1304526,0.010611175
4.8989897,3.7979798,-0.009121317,0.006227101,-5.034047,21.775936,-4.335319,0.011044239
4.8989897,3.838384,-0.009616021,0.006280531,-4.7811227,17.56282,-5.6028833,0.011485335
4.8989897,3.878788,-0.010121781,0.0063230842,-4.4325852,13.219124,-6.9462876,0.011934482
4.8989897,3.9191918,-0.010638703,0.0063545313,-3.9505832,8.798916,-8.381597,0.012392016
4.8989897,3.959596,-0.0111669265,0.0063744877,-3.2895164,4.3644013,-9.927413,0.012858241
4.8989897,4.0,-0.011706755,0.0063827876,-2.3978255,-0.0139665855,-11.606228,0.01333372
4.949495,0.04040404,0.00081923977,9.5665455e-06,1.0593209,-3.125692,-1.111435,0.0008192956
4.949495,0.08080808,0.0008546412,4.6007335e-07,0.4665947,-3.6436398,-0.2666305,0.0008546413
4.949495,0.121212125,0.0008953847,-9.201467e-06,-0.08931147,-4.083373,0.547079,0.00089543196
4.949495,0.16161616,0.0009412579,-1.9310042e-05,-0.60508746,-4.442215,1.3276877,0.000941456
4.949495,0.2020202,0.000991825,-2.9690564e-05,-1.0795239,-4.7188787,2.0732713,0.0009922693
4.949495,0.24242425,0.0010468289,-4.01251e-05,-1.5103014,-4.911158,2.7820807,0.0010475976
4.949495,0.28282827,0.0011057965,-5.0486997e-05,-1.895899,-5.0178022,3.4527414,0.0011069485
4.949495,0.32323232,0.0011683628,-6.0662627e-05,-2.2349906,-5.0378904,4.0839024,0.0011699366
4.949495,0.36363637,0.0012341253,-7.049367e-05,-2.526642,-4.9705606,4.674695,0.001236137
4.949495,0.4040404,0.0013028048,-7.970445e-05,-2.7704458,-4.8156233,5.22439,0.0013052407
4.949495,0.44444445,0.0013738647,-8.817762e-05,-2.966156,-4.573265,5.7326436,0.0013766915
4.949495,0.4848485,0.0014468692,-9.5855445e-05,-3.1137922,-4.2436786,6.199284,0.001450041
4.949495,0.5252525,0.0015215166,-0.00010241754,-3.2144318,-3.828261,6.624831,0.0015249598
4.949495,0.56565654,0.0015972741,-0.0001077503,-3.2682824,-3.3277931,7.00926,0.0016009043
4.949495,0.6060606,0.0016738065,-0.00011181645,-3.2778506,-2.7450225,7.3537607,0.0016775372
4.949495,0.64646465,0.0017507039,-0.000114297494,-3.244112,-2.0816412,7.659204,0.001754431
4.949495,0.68686867,0.0018274412,-0.000115122646,-3.1699774,-1.3410765,7.926938,0.0018310637
4.949495,0.72727275,0.001903791,-0.00011413917,-3.057317,-0.5258187,8.158667,0.0019072094
4.949495,0.7676768,0.0019791387,-0.000111263245,-2.9096951,0.3600258,8.356112,0.0019822638
4.949495,0.8080808,0.0020533837,-0.00010628067,-2.730019,1.3124932,8.52147,0.0020561323
4.949495,0.8484849,0.0021258704,-9.901449e-05,-2.5219367,2.3275802,8.656957,0.002128175
4.949495,0.8888889,0.002196394,-8.952245e-05,-2.289251,3.400079,8.764968,0.0021982177
4.949495,0.9292929,0.0022645406,-7.749349e-05,-2.0361395,4.5254674,8.848015,0.0022658661
4.949495,0.969697,0.002329994,-6.2985346e-05,-1.7663531,5.698362,8.909031,0.0023308452
4.949495,1.010101,0.0023924448,-4.5822933e-05,-1.4848263,6.912962,8.9505415,0.0023928836
4.949495,1.050505,0.0024515651,-2.5965273e-05,-1.1956238,8.164547,8.975817,0.0024517027
4.949495,1.0909091,0.002507113,-3.2503158e-06,-0.9033255,9.446842,8.987298,0.002507115
4.949495,1.1313131,0.0025587082,2.2264197e-05,-0.6125509,10.75446,8.988204,0.002558805
4.949495,1.1717172,0.002606202,5.074218e-05,-0.32742438,12.081656,8.981612,0.0026066958
4.949495,1.2121212,0.0026493855,8.217059e-05,-0.05257411,13.422714,8.970088,0.0026506595
4.949495,1.2525252,0.0026878975,0.00011659227,0.2074521,14.771852,8.956525,0.0026904251
4.949495,1.2929293,0.002721686,0.00015415065,0.4487567,16.124142,8.943548,0.0027260478
4.949495,1.3333334,0.0027503483,0.00019475445,0.6674485,17.474354,8.933518,0.002757235
4.949495,1.3737373,0.0027738921,0.00023845583,0.8595682,18.817062,8.929052,0.0027841227
4.949495,1.4141414,0.002792064,0.00028525665,1.0223899,20.148703,8.932619,0.0028065983
4.949495,1.4545455,0.0028048418,0.00033506379,1.1520029,21.463686,8.94582,0.002824784
4.949495,1.4949495,0.0028120242,0.00038796663,1.2466199,22.759449,8.9706745,0.0028386612
4.949495,1.5353535,0.0028134026,0.00044405647,1.3032583,24.032213,9.008587,0.002848231
4.949495,1.5757576,0.0028089099,0.0005031191,1.3206232,25.279268,9.061018,0.0028536124
4.949495,1.6161616,0.0027986132,0.000565188,1.296642,26.4976,9.128918,0.0028551135
4.949495,1.6565657,0.0027821697,0.00063020736,1.2303927,27.685337,9.213112,0.002852653
4.949495,1.6969697,0.002759587,0.00069833174,1.1221524,28.8427,9.313883,0.0028465746
4.949495,1.7373737,0.0027308874,0.0007692911,0.9711741,29.966908,9.431579,0.0028371736
4.949495,1.7777778,0.0026959889,0.0008431366,0.7784676,31.05889,9.566117,0.002824754
4.949495,1.8181819,0.0026546456,0.0009198971,0.5450974,32.11883,9.716976,0.0028095113
4.949495,1.8585858,0.002606947,0.0009994861,0.2724891,33.148018,9.883123,0.0027919787
4.949495,1.8989899,0.0025529265,0.001081815,-0.037802517,34.14635,10.06388,0.0027726807
4.949495,1.939394,0.002492331,0.001166976,-0.38219598,35.117535,10.257555,0.002752008
4.949495,1.979798,0.0024252273,0.0012547411,-0.7580048,36.0631,10.462768,0.0027305866
4.949495,2.020202,0.0023514107,0.0013452973,-1.1620135,36.985497,10.677427,0.002709051
4.949495,2.060606,0.0022709966,0.0014385115,-1.5899825,37.88858,10.899282,0.0026882598
4.949495,2.10101,0.0021838658,0.0015343856,-2.0375078,38.77503,11.125883,0.002669009
4.949495,2.1414142,0.0020899288,0.0016328357,-2.5000522,39.648537,11.354529,0.0026521604
4.949495,2.1818182,0.001989048,0.0017340258,-2.972686,40.512264,11.582375,0.0026387796
4.949495,2.2222223,0.0018812232,0.0018377099,-3.4503436,41.370296,11.806354,0.0026298629
4.949495,2.2626262,0.0017664172,0.0019440474,-3.9277027,42.22548,12.02301,0.0026266994
4.949495,2.3030303,0.0016443841,0.0020529851,-4.399097,43.081123,12.229023,0.002630351
4.949495,2.3434343,0.0015151612,0.0021644868,-4.8592486,43.93991,12.421112,0.0026421046
4.949495,2.3838384,0.0013784841,0.002278626,-5.3027306,44.80472,12.595577,0.0026631474
4.949495,2.4242425,0.0012344718,0.0023952909,-5.7247,45.67572,12.749445,0.0026946873
4.949495,2.4646466,0.00108267,0.002514596,-6.1192074,46.555847,12.878477,0.0027377668
4.949495,2.5050504,0.0009232536,0.0026363786,-6.482272,47.443523,12.979737,0.0027933654
4.949495,2.5454545,0.0007559806,0.00276074,-6.809349,48.338253,13.049968,0.0028623752
4.949495,2.5858586,0.0005805157,0.0028876103,-7.096189,49.238407,13.085814,0.002945385
4.949495,2.6262627,0.00039703026,0.003017011,-7.3393655,50.140854,13.084648,0.003043023
4.949495,2.6666667,0.0002050884,0.003148878,-7.536822,51.040756,13.043584,0.0031555498
4.949495,2.7070708,4.6007335e-06,0.003283077,-7.685419,51.932777,12.960037,0.0032830802
4.949495,2.7474747,-0.00020454824,0.0034195706,-7.7843266,52.809097,12.8324175,0.003425683
4.949495,2.7878788,-0.00042258576,0.0035582408,-7.8330793,53.660538,12.658563,0.0035832466
4.949495,2.8282828,-0.00064964965,0.0036990382,-7.830611,54.479256,12.437152,0.0037556528
4.949495,2.868687,-0.00088598207,0.0038417466,-7.778933,55.251373,12.167209,0.0039425856
4.949495,2.909091,-0.0011316799,0.003986167,-7.6792436,55.965477,11.8483305,0.004143697
4.949495,2.9494948,-0.0013870038,0.004132163,-7.53429,56.60606,11.479914,0.0043587326
4.949495,2.989899,-0.0016520508,0.0042794365,-7.347329,57.15846,11.0622425,0.0045872484
4.949495,3.030303,-0.0019269884,0.0044277217,-7.1221595,57.606262,10.596228,0.0048288717
4.949495,3.070707,-0.0022120662,0.0045767017,-6.864134,57.93006,10.082619,0.0050832503
4.949495,3.1111112,-0.002507288,0.004725974,-6.578343,58.11286,9.522782,0.00534989
4.949495,3.1515152,-0.0028128512,0.004875304,-6.2702274,58.136147,8.918684,0.005628563
4.949495,3.191919,-0.0031288303,0.0050240625,-5.947323,57.97894,8.272343,0.0059186807
4.949495,3.2323232,-0.003455516,0.005171843,-5.615657,57.622013,7.585526,0.006220012
4.949495,3.2727273,-0.0037928075,0.005318121,-5.281858,57.04721,6.8610497,0.0065320595
4.949495,3.3131313,-0.0041408464,0.005462393,-4.9530196,56.235386,6.1014614,0.006854513
4.949495,3.3535354,-0.0044996776,0.005604008,-4.6355753,55.16935,5.3091993,0.007186933
4.949495,3.3939395,-0.004869409,0.005742372,-4.3354588,53.833103,4.4866824,0.007529009
4.949495,3.4343433,-0.005250033,0.0058767777,-4.0583186,52.212097,3.6361501,0.007880314
4.949495,3.4747474,-0.005641576,0.0060066227,-3.808099,50.295074,2.7594569,0.008240564
4.949495,3.5151515,-0.0060439482,0.0061310995,-3.5875618,48.073036,1.8584505,0.008609279
4.949495,3.5555556,-0.006457232,0.0062496,-3.3983781,45.540695,0.933513,0.008986287
4.949495,3.5959597,-0.0068813823,0.006361262,-3.2393353,42.696285,-0.015200259,0.009371183
4.949495,3.6363637,-0.0073162876,0.006465451,-3.1081898,39.54196,-0.988667,0.009763715
4.949495,3.6767676,-0.0077620298,0.006561433,-2.9973848,36.08738,-1.9889989,0.010163735
4.949495,3.7171717,-0.008218437,0.0066484595,-2.8990974,32.34421,-3.0195806,0.010570938
4.949495,3.7575758,-0.008685544,0.0067258775,-2.799307,28.332733,-4.085662,0.010985267
4.949495,3.7979798,-0.009163275,0.0067930045,-2.6808674,24.078773,-5.1942277,0.0114066
4.949495,3.838384,-0.009651549,0.0068493364,-2.521167,19.61589,-6.3541274,0.011834941
4.949495,3.878788,-0.010150589,0.0068943147,-2.2933295,14.982381,-7.576714,0.012270535
4.949495,3.9191918,-0.010660209,0.006927451,-1.9635304,10.229061,-8.875855,0.012713364
4.949495,3.959596,-0.011180714,0.0069484543,-1.4923824,5.409746,-10.268009,0.013163942
4.949495,4.0,-0.011712063,0.006957043,-0.8320671,0.5915373,-11.7733555,0.013622513
